FeC2 at SiO2 2x2                        
   1.00000000000000     
    10.1103267670000001    0.0000000000000000    0.0000000000000000
    -5.0524506940000000    8.8012629086000000    0.0000000000000000
     0.0000000000000000    0.0000000000000000   37.2496490479000002
   O    Si   C    Fe   H 
    48    23     2     1     7
Selective dynamics
Direct
  0.0630914320258447  0.6837808114507941  0.1638394026874473   T   T   T
  0.5715488282959241  0.1793244381445385  0.1904508169852938   T   T   T
  0.1204762010957138  0.9959256857436121  0.2894000462658024   T   T   T
  0.5634238298025788  0.4222053881669541  0.3016670664540967   T   T   T
  0.1007921651658724  0.7342770285777392  0.2716959034511879   T   T   T
  0.5968803268415770  0.2034678048987734  0.2735654995798490   T   T   T
  0.1482621710345979  0.9758128696040476  0.1665619935416128   T   T   T
  0.6454515584692467  0.4663562118627745  0.1797612328640182   T   T   T
  0.4801507251746177  0.4601554595395411  0.2359979429956755   T   T   T
  0.2123623510691454  0.8656353099383686  0.1081426863924049   T   T   T
  0.6131937243934886  0.2829385529021481  0.1250650059322793   T   T   T
  0.5824655262477486  0.6865514528062043  0.1913071940269375   T   T   T
  0.3586364030649801  0.8958304729235275  0.1689118713336524   T   T   T
  0.8537427748373588  0.3886830724877078  0.1686701763454190   T   T   T
  0.6450574585912212  0.9680110674338877  0.1790641054523311   T   T   T
  0.3613022103181922  0.9498631924998113  0.2994159497035295   T   T   T
  0.8282005659227408  0.4829224267694171  0.2714584481414428   T   T   T
  0.0149903464730708  0.0140055517471653  0.2247010545682677   T   T   T
  0.6101192927847643  0.7806024763331122  0.1249453385890115   T   T   T
  0.8570480930621298  0.8958481848261718  0.1656024598049345   T   T   T
  0.0722613557551247  0.1880826869337124  0.1658456405390481   T   T   T
  0.0714251309894498  0.4701425714940212  0.2920832020546247   T   T   T
  0.0879108553276757  0.2271881551737592  0.2725851818074864   T   T   T
  0.1473309915337468  0.4778234813459599  0.1631039031414690   T   T   T
  0.0411184612798962  0.5246934640511681  0.2233448360957565   T   T   T
  0.4700287721797874  0.9479552423471679  0.2349422460782099   T   T   T
  0.2164936567440655  0.3619646691791160  0.1082013870667179   T   T   T
  0.3634514545373004  0.4063833588344933  0.1698911716814708   T   T   T
  0.3419236945266108  0.4867067581985472  0.2930509980631372   T   T   T
  0.1223325693631158  0.3248267637435653  0.3416319170748811   T   T   T
  0.1145792440282975  0.8227698942053554  0.3414037896584131   T   T   T
  0.7356552211863796  0.3409609160754267  0.3363397814033023   T   T   T
  0.0685558492429763  0.8648517921856751  0.0477252818600746   F   F   F
  0.5606494347801529  0.3228801399880012  0.0576939932302807   F   F   F
  0.1016123751303226  0.6308709395073890  0.0637686544897491   F   F   F
  0.6088779381378941  0.0982794184178744  0.0739611263573821   F   F   F
  0.6053665436076230  0.5064426601373953  0.0056973422682987   F   F   F
  0.5606509178295269  0.8228761116683927  0.0576861810761429   F   F   F
  0.6088785748061483  0.5982883427848407  0.0739675962170026   F   F   F
  0.3437516310968007  0.8933148664741637  0.0441083618771074   F   F   F
  0.8401401120975720  0.3842208822890285  0.0789567975853416   F   F   F
  0.8401382924420133  0.8842369647196406  0.0789558579791745   F   F   F
  0.9136327426745083  0.9574825894322103  0.0094439815942309   F   F   F
  0.0685657003182527  0.3648628649488685  0.0477213623600647   F   F   F
  0.1016157953902947  0.1308750814470585  0.0637617014041041   F   F   F
  0.9136358586150450  0.4575080919427421  0.0094465051079382   F   F   F
  0.6053299463523274  0.0064274866672491  0.0056895838059461   F   F   F
  0.3437649018498519  0.3933260528574110  0.0441086303360123   F   F   F
  0.5158100643643124  0.5042886234162407  0.1937974923683581   T   T   T
  0.5064336502257900  0.5193625867812584  0.2774507408473117   T   T   T
  0.1749731185997838  0.8746350069780022  0.3001801539196239   T   T   T
  0.6848768394430091  0.3621137680857100  0.2960622113022799   T   T   T
  0.1942657927714861  0.8535999753887052  0.1516517024557509   T   T   T
  0.6725448498454227  0.3297352483101410  0.1661070878771859   T   T   T
  0.0235893211788159  0.0196166883295778  0.1811817231332283   T   T   T
  0.6752846987271989  0.8333970490884074  0.1653677491457977   T   T   T
  0.0249840468906525  0.5192885462059210  0.1799117093191613   T   T   T
  0.5096475555565352  0.9979172506905754  0.1929811707480962   T   T   T
  0.1585044449284718  0.3741168168468334  0.2991626253228114   T   T   T
  0.1988688966943354  0.3559454936715508  0.1516612329442207   T   T   T
  0.0100935964681487  0.5526616008926731  0.2645248250871756   T   T   T
  0.5169963139279360  0.0193030138572370  0.2753134225844965   T   T   T
  0.0038796827467375  0.0402203422204614  0.2676853851582525   T   T   T
  0.5267204300318298  0.4572681263807610  0.0457187663113316   F   F   F
  0.1823797190101288  0.8142212173888908  0.0660228233784821   F   F   F
  0.6570537899050564  0.2727190432698734  0.0839010857788551   F   F   F
  0.6570514903559541  0.7727353529405931  0.0839000387891247   F   F   F
  0.9798382536438126  0.9613162438009510  0.0497144012717712   F   F   F
  0.1823829121519296  0.3142249048483308  0.0660197092551869   F   F   F
  0.9798401463212727  0.4613197040202763  0.0497156898745175   F   F   F
  0.5267076135151214  0.9572578489579726  0.0457131018284329   F   F   F
  0.6685907116015019  0.7179171733083547  0.2851337245752530   T   T   T
  0.6696347975527502  0.9843009604989359  0.2937252208373941   T   T   T
  0.7649069346375477  0.8943822923063471  0.2995704328375394   T   T   T
  0.1519738343755655  0.7648447998152075  0.3541680458354950   T   T   T
  0.8215183471625277  0.3237830075726323  0.3382814607244978   T   T   T
  0.1828144238668474  0.2869978576614495  0.3530577296143502   T   T   T
  0.6009919123795981  0.5873746817571543  0.9928777571150036   F   F   F
  0.8411526692956244  0.4932316015418863  0.0060564060539150   F   F   F
  0.6009155614678434  0.0873320122330341  0.9928672066800317   F   F   F
  0.8411699374409309  0.9932284821827366  0.0060500435778650   F   F   F
 
  0.00000000E+00  0.00000000E+00  0.00000000E+00
  0.00000000E+00  0.00000000E+00  0.00000000E+00
  0.00000000E+00  0.00000000E+00  0.00000000E+00
  0.00000000E+00  0.00000000E+00  0.00000000E+00
  0.00000000E+00  0.00000000E+00  0.00000000E+00
  0.00000000E+00  0.00000000E+00  0.00000000E+00
  0.00000000E+00  0.00000000E+00  0.00000000E+00
  0.00000000E+00  0.00000000E+00  0.00000000E+00
  0.00000000E+00  0.00000000E+00  0.00000000E+00
  0.00000000E+00  0.00000000E+00  0.00000000E+00
  0.00000000E+00  0.00000000E+00  0.00000000E+00
  0.00000000E+00  0.00000000E+00  0.00000000E+00
  0.00000000E+00  0.00000000E+00  0.00000000E+00
  0.00000000E+00  0.00000000E+00  0.00000000E+00
  0.00000000E+00  0.00000000E+00  0.00000000E+00
  0.00000000E+00  0.00000000E+00  0.00000000E+00
  0.00000000E+00  0.00000000E+00  0.00000000E+00
  0.00000000E+00  0.00000000E+00  0.00000000E+00
  0.00000000E+00  0.00000000E+00  0.00000000E+00
  0.00000000E+00  0.00000000E+00  0.00000000E+00
  0.00000000E+00  0.00000000E+00  0.00000000E+00
  0.00000000E+00  0.00000000E+00  0.00000000E+00
  0.00000000E+00  0.00000000E+00  0.00000000E+00
  0.00000000E+00  0.00000000E+00  0.00000000E+00
  0.00000000E+00  0.00000000E+00  0.00000000E+00
  0.00000000E+00  0.00000000E+00  0.00000000E+00
  0.00000000E+00  0.00000000E+00  0.00000000E+00
  0.00000000E+00  0.00000000E+00  0.00000000E+00
  0.00000000E+00  0.00000000E+00  0.00000000E+00
  0.00000000E+00  0.00000000E+00  0.00000000E+00
  0.00000000E+00  0.00000000E+00  0.00000000E+00
  0.00000000E+00  0.00000000E+00  0.00000000E+00
  0.00000000E+00  0.00000000E+00  0.00000000E+00
  0.00000000E+00  0.00000000E+00  0.00000000E+00
  0.00000000E+00  0.00000000E+00  0.00000000E+00
  0.00000000E+00  0.00000000E+00  0.00000000E+00
  0.00000000E+00  0.00000000E+00  0.00000000E+00
  0.00000000E+00  0.00000000E+00  0.00000000E+00
  0.00000000E+00  0.00000000E+00  0.00000000E+00
  0.00000000E+00  0.00000000E+00  0.00000000E+00
  0.00000000E+00  0.00000000E+00  0.00000000E+00
  0.00000000E+00  0.00000000E+00  0.00000000E+00
  0.00000000E+00  0.00000000E+00  0.00000000E+00
  0.00000000E+00  0.00000000E+00  0.00000000E+00
  0.00000000E+00  0.00000000E+00  0.00000000E+00
  0.00000000E+00  0.00000000E+00  0.00000000E+00
  0.00000000E+00  0.00000000E+00  0.00000000E+00
  0.00000000E+00  0.00000000E+00  0.00000000E+00
  0.00000000E+00  0.00000000E+00  0.00000000E+00
  0.00000000E+00  0.00000000E+00  0.00000000E+00
  0.00000000E+00  0.00000000E+00  0.00000000E+00
  0.00000000E+00  0.00000000E+00  0.00000000E+00
  0.00000000E+00  0.00000000E+00  0.00000000E+00
  0.00000000E+00  0.00000000E+00  0.00000000E+00
  0.00000000E+00  0.00000000E+00  0.00000000E+00
  0.00000000E+00  0.00000000E+00  0.00000000E+00
  0.00000000E+00  0.00000000E+00  0.00000000E+00
  0.00000000E+00  0.00000000E+00  0.00000000E+00
  0.00000000E+00  0.00000000E+00  0.00000000E+00
  0.00000000E+00  0.00000000E+00  0.00000000E+00
  0.00000000E+00  0.00000000E+00  0.00000000E+00
  0.00000000E+00  0.00000000E+00  0.00000000E+00
  0.00000000E+00  0.00000000E+00  0.00000000E+00
  0.00000000E+00  0.00000000E+00  0.00000000E+00
  0.00000000E+00  0.00000000E+00  0.00000000E+00
  0.00000000E+00  0.00000000E+00  0.00000000E+00
  0.00000000E+00  0.00000000E+00  0.00000000E+00
  0.00000000E+00  0.00000000E+00  0.00000000E+00
  0.00000000E+00  0.00000000E+00  0.00000000E+00
  0.00000000E+00  0.00000000E+00  0.00000000E+00
  0.00000000E+00  0.00000000E+00  0.00000000E+00
  0.00000000E+00  0.00000000E+00  0.00000000E+00
  0.00000000E+00  0.00000000E+00  0.00000000E+00
  0.00000000E+00  0.00000000E+00  0.00000000E+00
  0.00000000E+00  0.00000000E+00  0.00000000E+00
  0.00000000E+00  0.00000000E+00  0.00000000E+00
  0.00000000E+00  0.00000000E+00  0.00000000E+00
  0.00000000E+00  0.00000000E+00  0.00000000E+00
  0.00000000E+00  0.00000000E+00  0.00000000E+00
  0.00000000E+00  0.00000000E+00  0.00000000E+00
  0.00000000E+00  0.00000000E+00  0.00000000E+00
