XCrySDen XSF file                       
   1.00000000000000     
     8.7557991760000000    0.0014347150000000    0.0000000000000000
    -4.3767975578999998    7.6214061294000004    0.0000000000000000
     0.0000000000000000    0.0000000000000000   37.2496528624999996
   O    Si   C    Fe   H 
    35    17     3     1     7
Selective dynamics
Direct
  0.9384484430941067  0.1464092883318959  0.1582190250587101   T   T   T
  0.7931486503840335  0.2771702631539522  0.2933840421208903   T   T   T
  0.0297067032258969  0.1820006742531566  0.2877529495888566   T   T   T
  0.8375866392167252  0.3863872834803704  0.1636146219421266   T   T   T
  0.7041932633014775  0.3416231471009737  0.2294287866766273   T   T   T
  0.0606356904900437  0.4112152614768776  0.1128445380356935   T   T   T
  0.5979530553619217  0.4777732642545744  0.1788964792797591   T   T   T
  0.1648809559477796  0.4693997021648822  0.1809690359192387   T   T   T
  0.5008107432165607  0.7157035216278826  0.1688281632895517   T   T   T
  0.1291764405424027  0.5279675319266193  0.2850722447666528   T   T   T
  0.3724846316046685  0.6572432023821990  0.2342258166141640   T   T   T
  0.6274954247615852  0.6200178385178842  0.1150250817017641   T   T   T
  0.8413192381529961  0.8108235059778072  0.1675683322834887   T   T   T
  0.2645027273322340  0.8080076643875900  0.1837880272104854   T   T   T
  0.1429870992682242  0.9805681701140156  0.2624350990705607   T   T   T
  0.3648737528330525  0.8801578103009360  0.2797963645276466   T   T   T
  0.1718296823055792  0.0519430770516110  0.1783011428679446   T   T   T
  0.9204454568797068  0.0285933183852375  0.2234142096415882   T   T   T
  0.2934668107500824  0.9696997992276911  0.1208504650576763   T   T   T
  0.5078576144577758  0.1404850592957351  0.1757320789983847   T   T   T
  0.4695595464472633  0.2200794070483097  0.2835484306132077   T   T   T
  0.2438552104512585  0.0070776809197952  0.3321317009020338   T   T   T
  0.0266610907891128  0.3401747515721256  0.3466247360486739   T   T   T
  0.8519026110539869  0.2830175096409135  0.0551449455000963   F   F   F
  0.0951290435065033  0.1962061850667070  0.0664311973895266   F   F   F
  0.6435061787157181  0.2870410102154253  0.0062649441824689   F   F   F
  0.5342506074501685  0.6405541726310915  0.0487701749518550   F   F   F
  0.7536336604275746  0.5232028810499827  0.0605608868175764   F   F   F
  0.1884386361857082  0.5237255796688274  0.0485992416273646   F   F   F
  0.4053503677883512  0.7543799104697726  0.0000624435349366   F   F   F
  0.8628039680073414  0.8597700565214126  0.0708431599011377   F   F   F
  0.1980165186977203  0.9666623684948590  0.0524192516963211   F   F   F
  0.4136195033118710  0.8496938729704837  0.0695734043097360   F   F   F
  0.9973890368734430  0.9975159917261394  0.0056476771414893   F   F   F
  0.5247471517372873  0.1914274175841584  0.0742682395245922   F   F   F
  0.6612807151691565  0.3357471703387825  0.1867818828347050   T   T   T
  0.6751736359530621  0.3446049902172537  0.2723603506089443   T   T   T
  0.9971413407004991  0.3363235704629596  0.3032370254188613   T   T   T
  0.0003807535396900  0.3534690590190381  0.1541746948170198   T   T   T
  0.3243831288132466  0.6632062410147131  0.1921176824051335   T   T   T
  0.6432487965513408  0.6571501233753446  0.1577248202415839   T   T   T
  0.3332758560776538  0.6817883990978072  0.2762708838832820   T   T   T
  0.9693948637894312  0.0090232110085657  0.1820134411262801   T   T   T
  0.3036375938111491  0.0213388083155028  0.2901979695249656   T   T   T
  0.3098101100461622  0.9920394130522726  0.1642944545725648   T   T   T
  0.9671171435019215  0.0006740841015792  0.2647347580651224   T   T   T
  0.6910774899720735  0.3220183426711571  0.0490122440533654   F   F   F
  0.0488218116457233  0.3525782048129003  0.0710278288167245   F   F   F
  0.6956272550192253  0.6628021150869188  0.0740326861616509   F   F   F
  0.3826361464664956  0.6925288770002425  0.0420185394955936   F   F   F
  0.3577052593291512  0.9957001309194737  0.0791641802645557   F   F   F
  0.0343120899416434  0.0047479597412305  0.0487926409061856   F   F   F
  0.4876134759792588  0.6740796385118111  0.3096562870115843   T   T   T
  0.7578992341506562  0.5721943313193621  0.2892315735921609   T   T   T
  0.8412826279707661  0.6801812191893643  0.3175344978755752   T   T   T
  0.7228876884957581  0.7547076441841294  0.2924320174487414   T   T   T
  0.0105356940768142  0.4248983703773173  0.3602587868066542   T   T   T
  0.1233930258040591  0.9138947960745145  0.3371030940579234   T   T   T
  0.4394714277602042  0.5403691728177894  0.3198659365663929   T   T   T
  0.5000574240981590  0.7579966870710934  0.3328084326584404   T   T   T
  0.5597210857188841  0.3178860933932910  0.9966963901662567   F   F   F
  0.3228679203900313  0.7872232214258759  0.9905822695638307   F   F   F
  0.8930906914664405  0.0009212644617307  0.9978161294603112   F   F   F
 
  0.00000000E+00  0.00000000E+00  0.00000000E+00
  0.00000000E+00  0.00000000E+00  0.00000000E+00
  0.00000000E+00  0.00000000E+00  0.00000000E+00
  0.00000000E+00  0.00000000E+00  0.00000000E+00
  0.00000000E+00  0.00000000E+00  0.00000000E+00
  0.00000000E+00  0.00000000E+00  0.00000000E+00
  0.00000000E+00  0.00000000E+00  0.00000000E+00
  0.00000000E+00  0.00000000E+00  0.00000000E+00
  0.00000000E+00  0.00000000E+00  0.00000000E+00
  0.00000000E+00  0.00000000E+00  0.00000000E+00
  0.00000000E+00  0.00000000E+00  0.00000000E+00
  0.00000000E+00  0.00000000E+00  0.00000000E+00
  0.00000000E+00  0.00000000E+00  0.00000000E+00
  0.00000000E+00  0.00000000E+00  0.00000000E+00
  0.00000000E+00  0.00000000E+00  0.00000000E+00
  0.00000000E+00  0.00000000E+00  0.00000000E+00
  0.00000000E+00  0.00000000E+00  0.00000000E+00
  0.00000000E+00  0.00000000E+00  0.00000000E+00
  0.00000000E+00  0.00000000E+00  0.00000000E+00
  0.00000000E+00  0.00000000E+00  0.00000000E+00
  0.00000000E+00  0.00000000E+00  0.00000000E+00
  0.00000000E+00  0.00000000E+00  0.00000000E+00
  0.00000000E+00  0.00000000E+00  0.00000000E+00
  0.00000000E+00  0.00000000E+00  0.00000000E+00
  0.00000000E+00  0.00000000E+00  0.00000000E+00
  0.00000000E+00  0.00000000E+00  0.00000000E+00
  0.00000000E+00  0.00000000E+00  0.00000000E+00
  0.00000000E+00  0.00000000E+00  0.00000000E+00
  0.00000000E+00  0.00000000E+00  0.00000000E+00
  0.00000000E+00  0.00000000E+00  0.00000000E+00
  0.00000000E+00  0.00000000E+00  0.00000000E+00
  0.00000000E+00  0.00000000E+00  0.00000000E+00
  0.00000000E+00  0.00000000E+00  0.00000000E+00
  0.00000000E+00  0.00000000E+00  0.00000000E+00
  0.00000000E+00  0.00000000E+00  0.00000000E+00
  0.00000000E+00  0.00000000E+00  0.00000000E+00
  0.00000000E+00  0.00000000E+00  0.00000000E+00
  0.00000000E+00  0.00000000E+00  0.00000000E+00
  0.00000000E+00  0.00000000E+00  0.00000000E+00
  0.00000000E+00  0.00000000E+00  0.00000000E+00
  0.00000000E+00  0.00000000E+00  0.00000000E+00
  0.00000000E+00  0.00000000E+00  0.00000000E+00
  0.00000000E+00  0.00000000E+00  0.00000000E+00
  0.00000000E+00  0.00000000E+00  0.00000000E+00
  0.00000000E+00  0.00000000E+00  0.00000000E+00
  0.00000000E+00  0.00000000E+00  0.00000000E+00
  0.00000000E+00  0.00000000E+00  0.00000000E+00
  0.00000000E+00  0.00000000E+00  0.00000000E+00
  0.00000000E+00  0.00000000E+00  0.00000000E+00
  0.00000000E+00  0.00000000E+00  0.00000000E+00
  0.00000000E+00  0.00000000E+00  0.00000000E+00
  0.00000000E+00  0.00000000E+00  0.00000000E+00
  0.00000000E+00  0.00000000E+00  0.00000000E+00
  0.00000000E+00  0.00000000E+00  0.00000000E+00
  0.00000000E+00  0.00000000E+00  0.00000000E+00
  0.00000000E+00  0.00000000E+00  0.00000000E+00
  0.00000000E+00  0.00000000E+00  0.00000000E+00
  0.00000000E+00  0.00000000E+00  0.00000000E+00
  0.00000000E+00  0.00000000E+00  0.00000000E+00
  0.00000000E+00  0.00000000E+00  0.00000000E+00
  0.00000000E+00  0.00000000E+00  0.00000000E+00
  0.00000000E+00  0.00000000E+00  0.00000000E+00
  0.00000000E+00  0.00000000E+00  0.00000000E+00
