XCrySDen XSF file                       
   1.00000000000000     
     8.7557991760000000    0.0014347150000000    0.0000000000000000
    -4.3767975578999998    7.6214061294000004    0.0000000000000000
     0.0000000000000000    0.0000000000000000   37.2496528624999996
   O    Si   C    Fe   H 
    35    17     2     1     7
Selective dynamics
Direct
  0.9579224907485234  0.1430571410298095  0.1604481875354381   T   T   T
  0.7472060071191445  0.3450897668960667  0.3009565387591849   T   T   T
  0.8779044244114049  0.1487112196777158  0.2806363459081236   T   T   T
  0.8600353523946720  0.3837088588001411  0.1684575157193252   T   T   T
  0.6874443940167859  0.3237373343848506  0.2303509230590139   T   T   T
  0.0586638118226774  0.4038992671268906  0.1133051203137680   T   T   T
  0.6147624373304810  0.4734517216246377  0.1769057846484824   T   T   T
  0.1927629833852403  0.4680610853477234  0.1792401525472738   T   T   T
  0.5289604742301321  0.7212156012056665  0.1745026595357796   T   T   T
  0.0745661027157962  0.5048672180442473  0.2769879146166052   T   T   T
  0.3597996977879954  0.6646754570827583  0.2360634773692434   T   T   T
  0.6281765695241996  0.6257914737388576  0.1152924652146176   T   T   T
  0.8634104886600824  0.8077676470148399  0.1660289682749252   T   T   T
  0.2772045869332925  0.8026207411042776  0.1803582429899676   T   T   T
  0.0785008036189469  0.0106257483676226  0.2889131572600758   T   T   T
  0.2661315733504442  0.8605215393741248  0.2719114485698918   T   T   T
  0.1921281968786487  0.0515379089964896  0.1809987862080821   T   T   T
  0.9378257187605670  0.0057210081915677  0.2250074001228786   T   T   T
  0.2909788068594027  0.9711299869092392  0.1203768684316483   T   T   T
  0.5258800124908716  0.1361558625956695  0.1723814114947361   T   T   T
  0.4183341979402920  0.2141280759475336  0.2761238782907947   T   T   T
  0.3120159926080083  0.0076503975025906  0.3351311517439206   T   T   T
  0.9963486426150706  0.3296954994047724  0.3404685205939075   T   T   T
  0.8519026548236255  0.2830175594713253  0.0551449434329641   F   F   F
  0.0951290703909677  0.1962062500681228  0.0664311962619948   F   F   F
  0.6435061004821563  0.2870409626520285  0.0062649442898532   F   F   F
  0.5342505975073450  0.6405541733069029  0.0487701726162655   F   F   F
  0.7536336798323902  0.5232028949451859  0.0605608865222749   F   F   F
  0.1884386539624359  0.5237256191923763  0.0485992448488659   F   F   F
  0.4053503219012455  0.7543798795387815  0.0000624435349366   F   F   F
  0.8628040147043095  0.8597701015906765  0.0708431568407093   F   F   F
  0.1980164363965571  0.9666622901026898  0.0524192536023804   F   F   F
  0.4136195077532392  0.8496939362550080  0.0695734000412358   F   F   F
  0.9973891234368253  0.9975160622311918  0.0056476767924920   F   F   F
  0.5247471974274660  0.1914274233066635  0.0742682357393178   F   F   F
  0.6718388880169287  0.3288703994898681  0.1867370063267027   T   T   T
  0.6249702542413362  0.3570167083972406  0.2692946459172689   T   T   T
  0.9291761625478271  0.3337265092031313  0.2994719479617695   T   T   T
  0.0171507787064310  0.3487667561000500  0.1554012051097158   T   T   T
  0.3386821196868930  0.6638895479027143  0.1924672741296442   T   T   T
  0.6605628006108227  0.6582813461214294  0.1581669334262106   T   T   T
  0.2732121420854965  0.6773961032018113  0.2747474084135796   T   T   T
  0.9867784509791178  0.0016560233174738  0.1834882042257315   T   T   T
  0.2684068864741725  0.0239430663882115  0.2927972600513068   T   T   T
  0.3228763019056395  0.9908535654531638  0.1634592326706554   T   T   T
  0.8989516209127139  0.9787384939415960  0.2682296718466681   T   T   T
  0.6910775286213138  0.3220183334983560  0.0490122419862331   F   F   F
  0.0488218800347937  0.3525782393554096  0.0710278297026363   F   F   F
  0.6956272616535770  0.6628020981124365  0.0740326899200809   F   F   F
  0.3826362099072469  0.6925289029972745  0.0420185392271293   F   F   F
  0.3577053617196455  0.9957002245921984  0.0791641739826403   F   F   F
  0.0343120767440013  0.0047479128305739  0.0487926426243206   F   F   F
  0.4196233661140282  0.6882858176084438  0.3112227805160896   T   T   T
  0.6712244993522839  0.5893469308262478  0.2723302097298400   T   T   T
  0.6340098446478328  0.7408098520844079  0.2852703702815170   T   T   T
  0.0345306170810826  0.4348609106014381  0.3546281398409107   T   T   T
  0.3154822185151628  0.0950880793258075  0.3514032955524684   T   T   T
  0.4559012705896425  0.7989626749582148  0.3298232609135668   T   T   T
  0.3674022401272972  0.5657089328755845  0.3265708783468695   T   T   T
  0.5597210424564452  0.3178860854139103  0.9966964024348286   F   F   F
  0.3228679134789729  0.7872232072001992  0.9905822783424298   F   F   F
  0.8930907648007320  0.0009213088981426  0.9978161175675808   F   F   F
 
  0.00000000E+00  0.00000000E+00  0.00000000E+00
  0.00000000E+00  0.00000000E+00  0.00000000E+00
  0.00000000E+00  0.00000000E+00  0.00000000E+00
  0.00000000E+00  0.00000000E+00  0.00000000E+00
  0.00000000E+00  0.00000000E+00  0.00000000E+00
  0.00000000E+00  0.00000000E+00  0.00000000E+00
  0.00000000E+00  0.00000000E+00  0.00000000E+00
  0.00000000E+00  0.00000000E+00  0.00000000E+00
  0.00000000E+00  0.00000000E+00  0.00000000E+00
  0.00000000E+00  0.00000000E+00  0.00000000E+00
  0.00000000E+00  0.00000000E+00  0.00000000E+00
  0.00000000E+00  0.00000000E+00  0.00000000E+00
  0.00000000E+00  0.00000000E+00  0.00000000E+00
  0.00000000E+00  0.00000000E+00  0.00000000E+00
  0.00000000E+00  0.00000000E+00  0.00000000E+00
  0.00000000E+00  0.00000000E+00  0.00000000E+00
  0.00000000E+00  0.00000000E+00  0.00000000E+00
  0.00000000E+00  0.00000000E+00  0.00000000E+00
  0.00000000E+00  0.00000000E+00  0.00000000E+00
  0.00000000E+00  0.00000000E+00  0.00000000E+00
  0.00000000E+00  0.00000000E+00  0.00000000E+00
  0.00000000E+00  0.00000000E+00  0.00000000E+00
  0.00000000E+00  0.00000000E+00  0.00000000E+00
  0.00000000E+00  0.00000000E+00  0.00000000E+00
  0.00000000E+00  0.00000000E+00  0.00000000E+00
  0.00000000E+00  0.00000000E+00  0.00000000E+00
  0.00000000E+00  0.00000000E+00  0.00000000E+00
  0.00000000E+00  0.00000000E+00  0.00000000E+00
  0.00000000E+00  0.00000000E+00  0.00000000E+00
  0.00000000E+00  0.00000000E+00  0.00000000E+00
  0.00000000E+00  0.00000000E+00  0.00000000E+00
  0.00000000E+00  0.00000000E+00  0.00000000E+00
  0.00000000E+00  0.00000000E+00  0.00000000E+00
  0.00000000E+00  0.00000000E+00  0.00000000E+00
  0.00000000E+00  0.00000000E+00  0.00000000E+00
  0.00000000E+00  0.00000000E+00  0.00000000E+00
  0.00000000E+00  0.00000000E+00  0.00000000E+00
  0.00000000E+00  0.00000000E+00  0.00000000E+00
  0.00000000E+00  0.00000000E+00  0.00000000E+00
  0.00000000E+00  0.00000000E+00  0.00000000E+00
  0.00000000E+00  0.00000000E+00  0.00000000E+00
  0.00000000E+00  0.00000000E+00  0.00000000E+00
  0.00000000E+00  0.00000000E+00  0.00000000E+00
  0.00000000E+00  0.00000000E+00  0.00000000E+00
  0.00000000E+00  0.00000000E+00  0.00000000E+00
  0.00000000E+00  0.00000000E+00  0.00000000E+00
  0.00000000E+00  0.00000000E+00  0.00000000E+00
  0.00000000E+00  0.00000000E+00  0.00000000E+00
  0.00000000E+00  0.00000000E+00  0.00000000E+00
  0.00000000E+00  0.00000000E+00  0.00000000E+00
  0.00000000E+00  0.00000000E+00  0.00000000E+00
  0.00000000E+00  0.00000000E+00  0.00000000E+00
  0.00000000E+00  0.00000000E+00  0.00000000E+00
  0.00000000E+00  0.00000000E+00  0.00000000E+00
  0.00000000E+00  0.00000000E+00  0.00000000E+00
  0.00000000E+00  0.00000000E+00  0.00000000E+00
  0.00000000E+00  0.00000000E+00  0.00000000E+00
  0.00000000E+00  0.00000000E+00  0.00000000E+00
  0.00000000E+00  0.00000000E+00  0.00000000E+00
  0.00000000E+00  0.00000000E+00  0.00000000E+00
  0.00000000E+00  0.00000000E+00  0.00000000E+00
  0.00000000E+00  0.00000000E+00  0.00000000E+00
