XCrySDen XSF file                       
   1.00000000000000     
     8.7557991760000000    0.0014347150000000    0.0000000000000000
    -4.3767975578999998    7.6214061294000004    0.0000000000000000
     0.0000000000000000    0.0000000000000000   37.2496528624999996
   O    Si   C    Fe   H 
    35    17     3     1     9
Selective dynamics
Direct
  0.9369268825168406  0.1470775651320110  0.1603586257299632   T   T   T
  0.7892399009666174  0.3317451693731207  0.2973010176676025   T   T   T
  0.9898666757866309  0.1868180095151388  0.2849600257127094   T   T   T
  0.8365907309046260  0.3870917225080723  0.1615717046390906   T   T   T
  0.7195692777311795  0.3464524150537466  0.2281824158700784   T   T   T
  0.0633594294484844  0.4082810914380522  0.1130201933895202   T   T   T
  0.5988294209156932  0.4787852202943585  0.1789181733031823   T   T   T
  0.1637119596657367  0.4715953893055451  0.1812532133334078   T   T   T
  0.5002752731936931  0.7156709505073785  0.1690580391809175   T   T   T
  0.1219760724155571  0.5428684978564837  0.2840251031069759   T   T   T
  0.3683952282272121  0.6673954337513851  0.2342232142598974   T   T   T
  0.6252379264878539  0.6190581575211066  0.1148898820885827   T   T   T
  0.8420085257620695  0.8114730531768511  0.1663914067586057   T   T   T
  0.2626406346306601  0.8093873356968151  0.1828017246618202   T   T   T
  0.1368337015540033 -0.0040432396178367  0.2681243364951552   T   T   T
  0.3644485220933451  0.8915721083481378  0.2808659871493797   T   T   T
  0.1711914442580955  0.0531862653906355  0.1790911235423603   T   T   T
  0.9117126130749102  0.0104060745247473  0.2244943048070907   T   T   T
  0.2934464533811130  0.9737951180041994  0.1207800198278298   T   T   T
  0.5075575498509294  0.1422221627685015  0.1761238898476553   T   T   T
  0.4656585009729250  0.2377844243103722  0.2778555397044130   T   T   T
  0.2881992750705732  0.0360226073274799  0.3341067424220046   T   T   T
  0.0270772326969255  0.3465468692970065  0.3449302987477846   T   T   T
  0.8519026110539869  0.2830175096409135  0.0551449455000963   F   F   F
  0.0951290435065033  0.1962061850667070  0.0664311973895266   F   F   F
  0.6435061787157181  0.2870410102154253  0.0062649441824689   F   F   F
  0.5342506074501685  0.6405541726310915  0.0487701749518550   F   F   F
  0.7536336604275746  0.5232028810499827  0.0605608868175764   F   F   F
  0.1884386361857082  0.5237255796688274  0.0485992416273646   F   F   F
  0.4053503677883512  0.7543799104697726  0.0000624435349366   F   F   F
  0.8628039680073414  0.8597700565214126  0.0708431599011377   F   F   F
  0.1980165186977203  0.9666623684948590  0.0524192516963211   F   F   F
  0.4136195033118710  0.8496938729704837  0.0695734043097360   F   F   F
  0.9973890368734430  0.9975159917261394  0.0056476771414893   F   F   F
  0.5247471517372873  0.1914274175841584  0.0742682395245922   F   F   F
  0.6644217602344190  0.3379306700025020  0.1859447315390189   T   T   T
  0.6720976658770409  0.3729922321213280  0.2691133567076202   T   T   T
  0.9849347318644126  0.3537790915584462  0.3020055031280479   T   T   T
  0.0007720634448493  0.3532681783069810  0.1543401667844197   T   T   T
  0.3232686423299599  0.6662090180802535  0.1919026821040101   T   T   T
  0.6427471345317357  0.6576451830850633  0.1576002030607082   T   T   T
  0.3299155366719809  0.6910629652883027  0.2761284703726711   T   T   T
  0.9670470393465526  0.0058516553956679  0.1830355376407744   T   T   T
  0.3135536107799140  0.0406656533828645  0.2901929414034768   T   T   T
  0.3093959579643966 -0.0047939803885640  0.1642418756653936   T   T   T
  0.9510170720644372 -0.0018471692043873  0.2671647889175036   T   T   T
  0.6910774899720735  0.3220183426711571  0.0490122440533654   F   F   F
  0.0488218116457233  0.3525782048129003  0.0710278288167245   F   F   F
  0.6956272550192253  0.6628021150869188  0.0740326861616509   F   F   F
  0.3826361464664956  0.6925288770002425  0.0420185394955936   F   F   F
  0.3577052593291512  0.9957001309194737  0.0791641802645557   F   F   F
  0.0343120899416434  0.0047479597412305  0.0487926409061856   F   F   F
  0.4704496838421522  0.6632313749065715  0.3093384704131582   T   T   T
  0.7104021799526995  0.6009041615093719  0.2747943963237425   T   T   T
  0.8638815088916242  0.8154300870651772  0.3328175025558467   T   T   T
  0.7191045750813333  0.7603586131912351  0.2970687452550409   T   T   T
  0.0333860929813569  0.4396708971808865  0.3598249207279229   T   T   T
  0.2760151469641409  0.1306849454142691  0.3443518749152607   T   T   T
  0.8689211836078491  0.9216418496873883  0.3496359492488434   T   T   T
  0.4113152064015071  0.5253695048996939  0.3175050333813376   T   T   T
  0.4793249781658260  0.7404380347086554  0.3334669679638535   T   T   T
  0.9521800623090879  0.7681684845208354  0.3413507015770904   T   T   T
  0.5597210857188841  0.3178860933932910  0.9966963901662567   F   F   F
  0.3228679203900313  0.7872232214258759  0.9905822695638307   F   F   F
  0.8930906914664405  0.0009212644617307  0.9978161294603112   F   F   F
 
  0.00000000E+00  0.00000000E+00  0.00000000E+00
  0.00000000E+00  0.00000000E+00  0.00000000E+00
  0.00000000E+00  0.00000000E+00  0.00000000E+00
  0.00000000E+00  0.00000000E+00  0.00000000E+00
  0.00000000E+00  0.00000000E+00  0.00000000E+00
  0.00000000E+00  0.00000000E+00  0.00000000E+00
  0.00000000E+00  0.00000000E+00  0.00000000E+00
  0.00000000E+00  0.00000000E+00  0.00000000E+00
  0.00000000E+00  0.00000000E+00  0.00000000E+00
  0.00000000E+00  0.00000000E+00  0.00000000E+00
  0.00000000E+00  0.00000000E+00  0.00000000E+00
  0.00000000E+00  0.00000000E+00  0.00000000E+00
  0.00000000E+00  0.00000000E+00  0.00000000E+00
  0.00000000E+00  0.00000000E+00  0.00000000E+00
  0.00000000E+00  0.00000000E+00  0.00000000E+00
  0.00000000E+00  0.00000000E+00  0.00000000E+00
  0.00000000E+00  0.00000000E+00  0.00000000E+00
  0.00000000E+00  0.00000000E+00  0.00000000E+00
  0.00000000E+00  0.00000000E+00  0.00000000E+00
  0.00000000E+00  0.00000000E+00  0.00000000E+00
  0.00000000E+00  0.00000000E+00  0.00000000E+00
  0.00000000E+00  0.00000000E+00  0.00000000E+00
  0.00000000E+00  0.00000000E+00  0.00000000E+00
  0.00000000E+00  0.00000000E+00  0.00000000E+00
  0.00000000E+00  0.00000000E+00  0.00000000E+00
  0.00000000E+00  0.00000000E+00  0.00000000E+00
  0.00000000E+00  0.00000000E+00  0.00000000E+00
  0.00000000E+00  0.00000000E+00  0.00000000E+00
  0.00000000E+00  0.00000000E+00  0.00000000E+00
  0.00000000E+00  0.00000000E+00  0.00000000E+00
  0.00000000E+00  0.00000000E+00  0.00000000E+00
  0.00000000E+00  0.00000000E+00  0.00000000E+00
  0.00000000E+00  0.00000000E+00  0.00000000E+00
  0.00000000E+00  0.00000000E+00  0.00000000E+00
  0.00000000E+00  0.00000000E+00  0.00000000E+00
  0.00000000E+00  0.00000000E+00  0.00000000E+00
  0.00000000E+00  0.00000000E+00  0.00000000E+00
  0.00000000E+00  0.00000000E+00  0.00000000E+00
  0.00000000E+00  0.00000000E+00  0.00000000E+00
  0.00000000E+00  0.00000000E+00  0.00000000E+00
  0.00000000E+00  0.00000000E+00  0.00000000E+00
  0.00000000E+00  0.00000000E+00  0.00000000E+00
  0.00000000E+00  0.00000000E+00  0.00000000E+00
  0.00000000E+00  0.00000000E+00  0.00000000E+00
  0.00000000E+00  0.00000000E+00  0.00000000E+00
  0.00000000E+00  0.00000000E+00  0.00000000E+00
  0.00000000E+00  0.00000000E+00  0.00000000E+00
  0.00000000E+00  0.00000000E+00  0.00000000E+00
  0.00000000E+00  0.00000000E+00  0.00000000E+00
  0.00000000E+00  0.00000000E+00  0.00000000E+00
  0.00000000E+00  0.00000000E+00  0.00000000E+00
  0.00000000E+00  0.00000000E+00  0.00000000E+00
  0.00000000E+00  0.00000000E+00  0.00000000E+00
  0.00000000E+00  0.00000000E+00  0.00000000E+00
  0.00000000E+00  0.00000000E+00  0.00000000E+00
  0.00000000E+00  0.00000000E+00  0.00000000E+00
  0.00000000E+00  0.00000000E+00  0.00000000E+00
  0.00000000E+00  0.00000000E+00  0.00000000E+00
  0.00000000E+00  0.00000000E+00  0.00000000E+00
  0.00000000E+00  0.00000000E+00  0.00000000E+00
  0.00000000E+00  0.00000000E+00  0.00000000E+00
  0.00000000E+00  0.00000000E+00  0.00000000E+00
  0.00000000E+00  0.00000000E+00  0.00000000E+00
  0.00000000E+00  0.00000000E+00  0.00000000E+00
  0.00000000E+00  0.00000000E+00  0.00000000E+00
