XCrySDen XSF file                       
   1.00000000000000     
     8.7557991760000000    0.0014347150000000    0.0000000000000000
    -4.3767975578999998    7.6214061294000004    0.0000000000000000
     0.0000000000000000    0.0000000000000000   37.2496528624999996
   O    Si   C    Fe   H 
    35    17     3     1     7
Selective dynamics
Direct
  0.9567859895668214  0.1468813110011932  0.1588044483832087   T   T   T
  0.8031867819271900  0.3751226290524221  0.2994687126017584   T   T   T
  0.8929594218057595  0.1370339325986813  0.2856376603390197   T   T   T
  0.8545945562997328  0.3847356994433117  0.1666909180332741   T   T   T
  0.6978336965697666  0.3168071563334103  0.2305209566659588   T   T   T
  0.0623794274757804  0.4095210483044130  0.1130333768853732   T   T   T
  0.6167421740554978  0.4789370651849712  0.1794728654461832   T   T   T
  0.1859964355255188  0.4711440071656341  0.1801608328878722   T   T   T
  0.5223514270080448  0.7198332681230164  0.1717157943047660   T   T   T
  0.1314024312302065  0.4760742891531568  0.2799477305087351   T   T   T
  0.3754840404665686  0.6783454728528665  0.2346051469556857   T   T   T
  0.6273354702391564  0.6177150469882564  0.1151738443316635   T   T   T
  0.8595277875069184  0.8099576909837963  0.1649213501878731   T   T   T
  0.2742106556350402  0.8062650263728290  0.1804982023579371   T   T   T
  0.1306361421838246  0.0374411811376408  0.2735239439198872   T   T   T
  0.2568656581632575  0.8251246208778480  0.2807398112554618   T   T   T
  0.1841942219027486  0.0508951867359678  0.1814731358493702   T   T   T
  0.9124581769979591  0.0065568436080684  0.2229572460555078   T   T   T
  0.2895913813274282  0.9736409841580215  0.1203914979000134   T   T   T
  0.5194170252365137  0.1409076679627022  0.1729065167597159   T   T   T
  0.4687462580783791  0.1731135349240241  0.2846188315564001   T   T   T
  0.2552146546202907  0.0088508755176064  0.3384846685556248   T   T   T
  0.0279741349951944  0.3474012881238561  0.3443492131085643   T   T   T
  0.8519290592831936  0.2831512378372096  0.0551449455000963   F   F   F
  0.0951007800226762  0.1962056325427852  0.0664311973895266   F   F   F
  0.6435122639508180  0.2871351333529475  0.0062649441824689   F   F   F
  0.5341793733256353  0.6405944727190089  0.0487701749518550   F   F   F
  0.7536053152078566  0.5232955158714461  0.0605608868175764   F   F   F
  0.1883570345577468  0.5237117784525367  0.0485992416273646   F   F   F
  0.4052454233984548  0.7543852391140078  0.0000624435349366   F   F   F
  0.8627220604521284  0.8598515769208817  0.0708431599011377   F   F   F
  0.1978518149578221  0.9666086994911609  0.0524192516963211   F   F   F
  0.4134972603595273  0.8496917911639912  0.0695734043097360   F   F   F
  0.9972936637028056  0.9976098862507214  0.0056476771414893   F   F   F
  0.5247602006511727  0.1915081818089135  0.0742682395245922   F   F   F
  0.6718281617174106  0.3300901487320172  0.1875117700309391   T   T   T
  0.6481543401170510  0.3460083141019094  0.2715373353221999   T   T   T
  0.9630410382043290  0.3316098310711696  0.3026445458888721   T   T   T
  0.0150401719433665  0.3527536567620329  0.1548777154009661   T   T   T
  0.3377671288941507  0.6681997156483307  0.1916020001348519   T   T   T
  0.6576515832072792  0.6565009912687518  0.1578517307924475   T   T   T
  0.3042810263606452  0.6699435046662712  0.2755803234946471   T   T   T
  0.9791703896531254  0.0037391982708947  0.1825092043210338   T   T   T
  0.2766252834122279  0.0100234231595996  0.2948552382114306   T   T   T
  0.3179286055405415  0.9940788623270760  0.1635939645798678   T   T   T
  0.9268634441841440  0.9873627767904205  0.2665044729274852   T   T   T
  0.6910814158987222  0.3221181295740294  0.0490122440533654   F   F   F
  0.0487595369705716  0.3525542246851003  0.0710278288167245   F   F   F
  0.6955669792440489  0.6628706981160590  0.0740326861616509   F   F   F
  0.3825407958196010  0.6925357489639055  0.0420185394955936   F   F   F
  0.3575500675001422  0.9956737883685420  0.0791641802645771   F   F   F
  0.0343144165852252  0.0047539716394382  0.0487926409061856   F   F   F
  0.4711419508020379  0.6900668695338853  0.3088783955544561   T   T   T
  0.6295092785154289  0.5461703686215399  0.2694509267231981   T   T   T
  0.8138100679687752  0.7575206533465033  0.3245162452388147   T   T   T
  0.6893573138201250  0.7415270127973350  0.2927569182799645   T   T   T
  0.9405776227275994  0.2769958170863221  0.3621217969722504   T   T   T
  0.1366895890502024  0.9293911302000745  0.3471566182933661   T   T   T
  0.5521114169490462  0.5524389577579621  0.2466175161819297   T   T   T
  0.4287180764509527  0.6598269805164484  0.3369126170189008   T   T   T
  0.5597134410968891  0.3179615437868222  0.9966963901662567   F   F   F
  0.3227489896947091  0.7872099345341610  0.9905822695638307   F   F   F
  0.8931745130129656  0.0010892845739505  0.9978161294603112   F   F   F
 
  0.00000000E+00  0.00000000E+00  0.00000000E+00
  0.00000000E+00  0.00000000E+00  0.00000000E+00
  0.00000000E+00  0.00000000E+00  0.00000000E+00
  0.00000000E+00  0.00000000E+00  0.00000000E+00
  0.00000000E+00  0.00000000E+00  0.00000000E+00
  0.00000000E+00  0.00000000E+00  0.00000000E+00
  0.00000000E+00  0.00000000E+00  0.00000000E+00
  0.00000000E+00  0.00000000E+00  0.00000000E+00
  0.00000000E+00  0.00000000E+00  0.00000000E+00
  0.00000000E+00  0.00000000E+00  0.00000000E+00
  0.00000000E+00  0.00000000E+00  0.00000000E+00
  0.00000000E+00  0.00000000E+00  0.00000000E+00
  0.00000000E+00  0.00000000E+00  0.00000000E+00
  0.00000000E+00  0.00000000E+00  0.00000000E+00
  0.00000000E+00  0.00000000E+00  0.00000000E+00
  0.00000000E+00  0.00000000E+00  0.00000000E+00
  0.00000000E+00  0.00000000E+00  0.00000000E+00
  0.00000000E+00  0.00000000E+00  0.00000000E+00
  0.00000000E+00  0.00000000E+00  0.00000000E+00
  0.00000000E+00  0.00000000E+00  0.00000000E+00
  0.00000000E+00  0.00000000E+00  0.00000000E+00
  0.00000000E+00  0.00000000E+00  0.00000000E+00
  0.00000000E+00  0.00000000E+00  0.00000000E+00
  0.00000000E+00  0.00000000E+00  0.00000000E+00
  0.00000000E+00  0.00000000E+00  0.00000000E+00
  0.00000000E+00  0.00000000E+00  0.00000000E+00
  0.00000000E+00  0.00000000E+00  0.00000000E+00
  0.00000000E+00  0.00000000E+00  0.00000000E+00
  0.00000000E+00  0.00000000E+00  0.00000000E+00
  0.00000000E+00  0.00000000E+00  0.00000000E+00
  0.00000000E+00  0.00000000E+00  0.00000000E+00
  0.00000000E+00  0.00000000E+00  0.00000000E+00
  0.00000000E+00  0.00000000E+00  0.00000000E+00
  0.00000000E+00  0.00000000E+00  0.00000000E+00
  0.00000000E+00  0.00000000E+00  0.00000000E+00
  0.00000000E+00  0.00000000E+00  0.00000000E+00
  0.00000000E+00  0.00000000E+00  0.00000000E+00
  0.00000000E+00  0.00000000E+00  0.00000000E+00
  0.00000000E+00  0.00000000E+00  0.00000000E+00
  0.00000000E+00  0.00000000E+00  0.00000000E+00
  0.00000000E+00  0.00000000E+00  0.00000000E+00
  0.00000000E+00  0.00000000E+00  0.00000000E+00
  0.00000000E+00  0.00000000E+00  0.00000000E+00
  0.00000000E+00  0.00000000E+00  0.00000000E+00
  0.00000000E+00  0.00000000E+00  0.00000000E+00
  0.00000000E+00  0.00000000E+00  0.00000000E+00
  0.00000000E+00  0.00000000E+00  0.00000000E+00
  0.00000000E+00  0.00000000E+00  0.00000000E+00
  0.00000000E+00  0.00000000E+00  0.00000000E+00
  0.00000000E+00  0.00000000E+00  0.00000000E+00
  0.00000000E+00  0.00000000E+00  0.00000000E+00
  0.00000000E+00  0.00000000E+00  0.00000000E+00
  0.00000000E+00  0.00000000E+00  0.00000000E+00
  0.00000000E+00  0.00000000E+00  0.00000000E+00
  0.00000000E+00  0.00000000E+00  0.00000000E+00
  0.00000000E+00  0.00000000E+00  0.00000000E+00
  0.00000000E+00  0.00000000E+00  0.00000000E+00
  0.00000000E+00  0.00000000E+00  0.00000000E+00
  0.00000000E+00  0.00000000E+00  0.00000000E+00
  0.00000000E+00  0.00000000E+00  0.00000000E+00
  0.00000000E+00  0.00000000E+00  0.00000000E+00
  0.00000000E+00  0.00000000E+00  0.00000000E+00
  0.00000000E+00  0.00000000E+00  0.00000000E+00
