XCrySDen XSF file                       
   1.00000000000000     
     8.7557991760000000    0.0014347150000000    0.0000000000000000
    -4.3767975578999998    7.6214061294000004    0.0000000000000000
     0.0000000000000000    0.0000000000000000   37.2496528624999996
   O    Si   C    Fe   H 
    35    17     3     1     5
Selective dynamics
Direct
  0.9374753361319448  0.1535710239635811  0.1633916091110882   T   T   T
  0.7821513158103740  0.2246093864567766  0.2898394099163018   T   T   T
  0.0370275530815934  0.1462336687757029  0.2881689214486587   T   T   T
  0.8436198315867103  0.3974200521738980  0.1601467767848416   T   T   T
  0.7338327166743099  0.3464576169116498  0.2268998250841979   T   T   T
  0.0672151496961800  0.4060805413338256  0.1131520605744092   T   T   T
  0.6098738340896380  0.4882092342469143  0.1801194870264336   T   T   T
  0.1698780976779671  0.4793969344609533  0.1810348149001080   T   T   T
  0.5084125666303053  0.7214093828473080  0.1718260782469174   T   T   T
  0.1096015481055482  0.4785297604292388  0.2832829747376395   T   T   T
  0.3553627920143567  0.6800605453977865  0.2355806017166648   T   T   T
  0.6227729627382544  0.6205700634731820  0.1150722870117767   T   T   T
  0.8488845492874394  0.8192262799397924  0.1641715811771023   T   T   T
  0.2686641086818779  0.8177280953442952  0.1820013540515421   T   T   T
  0.1217071483132321 -0.0803967385625224  0.2657520610726294   T   T   T
  0.3221609987059685  0.8147391619257599  0.2981432624763942   T   T   T
  0.1778397339493497  0.0629578092500690  0.1784489777365233   T   T   T
  0.9175036106085811 -0.0045975737932317  0.2252335172708964   T   T   T
  0.2923972876141040  0.9756329533471598  0.1204865367853690   T   T   T
  0.5141530168729854  0.1512102902509066  0.1742834771066214   T   T   T
  0.4629369435504471  0.1233242468389116  0.2656395209205268   T   T   T
  0.2849572663544499  0.0642480311545686  0.3287756416801366   T   T   T
 -0.0041593609239624  0.3026577292788493  0.3459132457681722   T   T   T
  0.8519818593873438  0.2834186516467199  0.0551449434329641   F   F   F
  0.0950442813585539  0.1962045603075069  0.0664311962619948   F   F   F
  0.6435243545405314  0.2873233218091329  0.0062649442898532   F   F   F
  0.5340369202775435  0.6406750573734783  0.0487701726162655   F   F   F
  0.7535486377451335  0.5234808124285451  0.0605608865222749   F   F   F
  0.1881938710730751  0.5236842031070807  0.0485992448488659   F   F   F
  0.4050355301758728  0.7543958151331296  0.0000624435349366   F   F   F
  0.8625582439210859  0.8600145909380998  0.0708431568407093   F   F   F
  0.1975223861222020  0.9665012579837011  0.0524192536023804   F   F   F
  0.4132527979460505  0.8496875760276268  0.0695734000412358   F   F   F
  0.9971028057547002  0.9977975602576521  0.0056476767924920   F   F   F
  0.5247863323140436  0.1916697596710080  0.0742682357393178   F   F   F
  0.6728950869073353  0.3440338132376375  0.1853268065886056   T   T   T
  0.6632399696566409  0.2872250791778340  0.2677059208760210   T   T   T
  0.9837290328585369  0.2882135200897891  0.3019560286501521   T   T   T
  0.0054463038393618  0.3584596181881389  0.1546561206857093   T   T   T
  0.3258753578471301  0.6740705076656338  0.1923694955916350   T   T   T
  0.6477971396319924  0.6630243818977651  0.1577781504440982   T   T   T
  0.3070821895720470  0.6441217290800251  0.2780025767274895   T   T   T
  0.9719687275563550  0.0083531583022215  0.1832210914523249   T   T   T
  0.2974423170506154  0.9826337967361696  0.2897090839951560   T   T   T
  0.3146542705436212  0.0032575424389375  0.1636854652738396   T   T   T
  0.9527023130407449  0.9554259154936940  0.2667435830329983   T   T   T
  0.6910891684543117  0.3223176199110469  0.0490122419862331   F   F   F
  0.0486350182725985  0.3525062405802117  0.0710278297026363   F   F   F
  0.6954463576606997  0.6630077372712790  0.0740326899200809   F   F   F
  0.3823500935843711  0.6925494255219533  0.0420185392271293   F   F   F
  0.3572397213142224  0.9956209305710644  0.0791641739826403   F   F   F
  0.0343190714739166  0.0047660184087590  0.0487926426243206   F   F   F
  0.4731411973445361  0.6073195409855580  0.2995584490339032   T   T   T
  0.5152662752263446  0.4816847837273726  0.2969666675450823   T   T   T
  0.6578197701044115  0.4651869409665430  0.2924874364170540   T   T   T
  0.7250504095740287  0.7079052064315245  0.2985502185508368   T   T   T
  0.0680791410156689  0.2598639577798142  0.3566220694111396   T   T   T
  0.3375509453776024  0.0337358163567030  0.3483355299759630   T   T   T
  0.5596981600817159  0.3181124259080974  0.9966964024348286   F   F   F
  0.3225111373083180  0.7871832555006435  0.9905822783424298   F   F   F
  0.8933420456724974  0.0014253680465899  0.9978161175675808   F   F   F
 
  0.00000000E+00  0.00000000E+00  0.00000000E+00
  0.00000000E+00  0.00000000E+00  0.00000000E+00
  0.00000000E+00  0.00000000E+00  0.00000000E+00
  0.00000000E+00  0.00000000E+00  0.00000000E+00
  0.00000000E+00  0.00000000E+00  0.00000000E+00
  0.00000000E+00  0.00000000E+00  0.00000000E+00
  0.00000000E+00  0.00000000E+00  0.00000000E+00
  0.00000000E+00  0.00000000E+00  0.00000000E+00
  0.00000000E+00  0.00000000E+00  0.00000000E+00
  0.00000000E+00  0.00000000E+00  0.00000000E+00
  0.00000000E+00  0.00000000E+00  0.00000000E+00
  0.00000000E+00  0.00000000E+00  0.00000000E+00
  0.00000000E+00  0.00000000E+00  0.00000000E+00
  0.00000000E+00  0.00000000E+00  0.00000000E+00
  0.00000000E+00  0.00000000E+00  0.00000000E+00
  0.00000000E+00  0.00000000E+00  0.00000000E+00
  0.00000000E+00  0.00000000E+00  0.00000000E+00
  0.00000000E+00  0.00000000E+00  0.00000000E+00
  0.00000000E+00  0.00000000E+00  0.00000000E+00
  0.00000000E+00  0.00000000E+00  0.00000000E+00
  0.00000000E+00  0.00000000E+00  0.00000000E+00
  0.00000000E+00  0.00000000E+00  0.00000000E+00
  0.00000000E+00  0.00000000E+00  0.00000000E+00
  0.00000000E+00  0.00000000E+00  0.00000000E+00
  0.00000000E+00  0.00000000E+00  0.00000000E+00
  0.00000000E+00  0.00000000E+00  0.00000000E+00
  0.00000000E+00  0.00000000E+00  0.00000000E+00
  0.00000000E+00  0.00000000E+00  0.00000000E+00
  0.00000000E+00  0.00000000E+00  0.00000000E+00
  0.00000000E+00  0.00000000E+00  0.00000000E+00
  0.00000000E+00  0.00000000E+00  0.00000000E+00
  0.00000000E+00  0.00000000E+00  0.00000000E+00
  0.00000000E+00  0.00000000E+00  0.00000000E+00
  0.00000000E+00  0.00000000E+00  0.00000000E+00
  0.00000000E+00  0.00000000E+00  0.00000000E+00
  0.00000000E+00  0.00000000E+00  0.00000000E+00
  0.00000000E+00  0.00000000E+00  0.00000000E+00
  0.00000000E+00  0.00000000E+00  0.00000000E+00
  0.00000000E+00  0.00000000E+00  0.00000000E+00
  0.00000000E+00  0.00000000E+00  0.00000000E+00
  0.00000000E+00  0.00000000E+00  0.00000000E+00
  0.00000000E+00  0.00000000E+00  0.00000000E+00
  0.00000000E+00  0.00000000E+00  0.00000000E+00
  0.00000000E+00  0.00000000E+00  0.00000000E+00
  0.00000000E+00  0.00000000E+00  0.00000000E+00
  0.00000000E+00  0.00000000E+00  0.00000000E+00
  0.00000000E+00  0.00000000E+00  0.00000000E+00
  0.00000000E+00  0.00000000E+00  0.00000000E+00
  0.00000000E+00  0.00000000E+00  0.00000000E+00
  0.00000000E+00  0.00000000E+00  0.00000000E+00
  0.00000000E+00  0.00000000E+00  0.00000000E+00
  0.00000000E+00  0.00000000E+00  0.00000000E+00
  0.00000000E+00  0.00000000E+00  0.00000000E+00
  0.00000000E+00  0.00000000E+00  0.00000000E+00
  0.00000000E+00  0.00000000E+00  0.00000000E+00
  0.00000000E+00  0.00000000E+00  0.00000000E+00
  0.00000000E+00  0.00000000E+00  0.00000000E+00
  0.00000000E+00  0.00000000E+00  0.00000000E+00
  0.00000000E+00  0.00000000E+00  0.00000000E+00
  0.00000000E+00  0.00000000E+00  0.00000000E+00
  0.00000000E+00  0.00000000E+00  0.00000000E+00
