XCrySDen XSF file                       
   1.00000000000000     
     8.7557991760000000    0.0014347150000000    0.0000000000000000
    -4.3767975578999998    7.6214061294000004    0.0000000000000000
     0.0000000000000000    0.0000000000000000   37.2496528624999996
   O    Si   C    Fe   H 
    35    17     2     1     7
Selective dynamics
Direct
  0.9335932937313033  0.1639693113641196  0.1688753332623476   T   T   T
  0.8743557714583164  0.2801444957762468  0.2772408100175023   T   T   T
  0.0539227648027381  0.1323712904800604  0.2971127009595596   T   T   T
  0.8450303634165157  0.4103960196768869  0.1621104033952038   T   T   T
  0.7032265917229470  0.3429796376038337  0.2275452360873330   T   T   T
  0.0576910479868941  0.3976804609840381  0.1137167893221608   T   T   T
  0.6052702380206649  0.4986314316647708  0.1803369737219381   T   T   T
  0.1726563141881975  0.4926712068764832  0.1802481143873261   T   T   T
  0.5073853463042446  0.7356201416811817  0.1676234020126028   T   T   T
  0.2294097236189804  0.4762460652111358  0.2880610132644321   T   T   T
  0.3756520899308239  0.6916146138756202  0.2328379206836128   T   T   T
  0.6320539966636823  0.6264257492543482  0.1154426115028098   T   T   T
  0.8470951830637252  0.8306692488544150  0.1673825221246406   T   T   T
  0.2704237562962561  0.8309325723865228  0.1832515682449651   T   T   T
  0.1868698067037383  0.9633166322119207  0.2655249040192986   T   T   T
  0.3523940805153031  0.8168908909794881  0.2972993016698157   T   T   T
  0.1803467166951818  0.0761009344363310  0.1765418935462697   T   T   T
  0.9492303544117142  0.0071260518454041  0.2293927605485957   T   T   T
  0.2886331123518850  0.9720282882369937  0.1201245639594113   T   T   T
  0.5150572647422993  0.1626893165365497  0.1713617889577538   T   T   T
  0.5274753678007716  0.1618164752727522  0.2843024401044640   T   T   T
  0.2793969276636825  0.0181691692371554  0.3359074361467129   T   T   T
  0.0061154013465830  0.3406442478492394  0.3432164855939225   T   T   T
  0.8519026548236255  0.2830175594713253  0.0551449434329641   F   F   F
  0.0951290703909677  0.1962062500681228  0.0664311962619948   F   F   F
  0.6435061004821563  0.2870409626520285  0.0062649442898532   F   F   F
  0.5342505975073450  0.6405541733069029  0.0487701726162655   F   F   F
  0.7536336798323902  0.5232028949451859  0.0605608865222749   F   F   F
  0.1884386539624359  0.5237256191923763  0.0485992448488659   F   F   F
  0.4053503219012455  0.7543798795387815  0.0000624435349366   F   F   F
  0.8628040147043095  0.8597701015906765  0.0708431568407093   F   F   F
  0.1980164363965571  0.9666622901026898  0.0524192536023804   F   F   F
  0.4136195077532392  0.8496939362550080  0.0695734000412358   F   F   F
  0.9973891234368253  0.9975160622311918  0.0056476767924920   F   F   F
  0.5247471974274660  0.1914274233066635  0.0742682357393178   F   F   F
  0.6668390123802462  0.3531654936393308  0.1853905106589838   T   T   T
  0.7146706095432136  0.3224424901966766  0.2704597423122558   T   T   T
  0.0416800506621600  0.3106355761013127  0.3013155458430783   T   T   T
  0.0021965840618384  0.3647753707851010  0.1559042831033591   T   T   T
  0.3309171272314035  0.6869418926254874  0.1905157949801402   T   T   T
  0.6498052926149666  0.6744192989248167  0.1577794464550470   T   T   T
  0.3794208436878400  0.6716625705736956  0.2757421581043046   T   T   T
  0.9775576354929776  0.0193440557892863  0.1859504992260252   T   T   T
  0.3377658509050372  0.9948187743443142  0.2954320333833422   T   T   T
  0.3147765760352014  0.0116859573634179  0.1628570212474864   T   T   T
  0.9975471367166326  0.9633818269983060  0.2693685515224404   T   T   T
  0.6910775286213138  0.3220183334983560  0.0490122419862331   F   F   F
  0.0488218800347937  0.3525782393554096  0.0710278297026363   F   F   F
  0.6956272616535770  0.6628020981124365  0.0740326899200809   F   F   F
  0.3826362099072469  0.6925289029972745  0.0420185392271293   F   F   F
  0.3577053617196455  0.9957002245921984  0.0791641739826403   F   F   F
  0.0343120767440013  0.0047479128305739  0.0487926426243206   F   F   F
  0.6042427908865322  0.7167253009328601  0.2876725057618386   T   T   T
  0.7840694473226290  0.5340476454382277  0.2930223624667011   T   T   T
  0.7772458999367703  0.7210881419387297  0.3018119898971762   T   T   T
  0.1056232034589021  0.4246013984830591  0.3572011452764478   T   T   T
  0.2193201776514358  0.0858862669841701  0.3368323925408884   T   T   T
  0.7139509926688475  0.7277652080977831  0.3395740294480080   T   T   T
  0.9013518658464521  0.5850435758578100  0.3116099406175580   T   T   T
  0.5597210424564452  0.3178860854139103  0.9966964024348286   F   F   F
  0.3228679134789729  0.7872232072001992  0.9905822783424298   F   F   F
  0.8930907648007320  0.0009213088981426  0.9978161175675808   F   F   F
 
  0.00000000E+00  0.00000000E+00  0.00000000E+00
  0.00000000E+00  0.00000000E+00  0.00000000E+00
  0.00000000E+00  0.00000000E+00  0.00000000E+00
  0.00000000E+00  0.00000000E+00  0.00000000E+00
  0.00000000E+00  0.00000000E+00  0.00000000E+00
  0.00000000E+00  0.00000000E+00  0.00000000E+00
  0.00000000E+00  0.00000000E+00  0.00000000E+00
  0.00000000E+00  0.00000000E+00  0.00000000E+00
  0.00000000E+00  0.00000000E+00  0.00000000E+00
  0.00000000E+00  0.00000000E+00  0.00000000E+00
  0.00000000E+00  0.00000000E+00  0.00000000E+00
  0.00000000E+00  0.00000000E+00  0.00000000E+00
  0.00000000E+00  0.00000000E+00  0.00000000E+00
  0.00000000E+00  0.00000000E+00  0.00000000E+00
  0.00000000E+00  0.00000000E+00  0.00000000E+00
  0.00000000E+00  0.00000000E+00  0.00000000E+00
  0.00000000E+00  0.00000000E+00  0.00000000E+00
  0.00000000E+00  0.00000000E+00  0.00000000E+00
  0.00000000E+00  0.00000000E+00  0.00000000E+00
  0.00000000E+00  0.00000000E+00  0.00000000E+00
  0.00000000E+00  0.00000000E+00  0.00000000E+00
  0.00000000E+00  0.00000000E+00  0.00000000E+00
  0.00000000E+00  0.00000000E+00  0.00000000E+00
  0.00000000E+00  0.00000000E+00  0.00000000E+00
  0.00000000E+00  0.00000000E+00  0.00000000E+00
  0.00000000E+00  0.00000000E+00  0.00000000E+00
  0.00000000E+00  0.00000000E+00  0.00000000E+00
  0.00000000E+00  0.00000000E+00  0.00000000E+00
  0.00000000E+00  0.00000000E+00  0.00000000E+00
  0.00000000E+00  0.00000000E+00  0.00000000E+00
  0.00000000E+00  0.00000000E+00  0.00000000E+00
  0.00000000E+00  0.00000000E+00  0.00000000E+00
  0.00000000E+00  0.00000000E+00  0.00000000E+00
  0.00000000E+00  0.00000000E+00  0.00000000E+00
  0.00000000E+00  0.00000000E+00  0.00000000E+00
  0.00000000E+00  0.00000000E+00  0.00000000E+00
  0.00000000E+00  0.00000000E+00  0.00000000E+00
  0.00000000E+00  0.00000000E+00  0.00000000E+00
  0.00000000E+00  0.00000000E+00  0.00000000E+00
  0.00000000E+00  0.00000000E+00  0.00000000E+00
  0.00000000E+00  0.00000000E+00  0.00000000E+00
  0.00000000E+00  0.00000000E+00  0.00000000E+00
  0.00000000E+00  0.00000000E+00  0.00000000E+00
  0.00000000E+00  0.00000000E+00  0.00000000E+00
  0.00000000E+00  0.00000000E+00  0.00000000E+00
  0.00000000E+00  0.00000000E+00  0.00000000E+00
  0.00000000E+00  0.00000000E+00  0.00000000E+00
  0.00000000E+00  0.00000000E+00  0.00000000E+00
  0.00000000E+00  0.00000000E+00  0.00000000E+00
  0.00000000E+00  0.00000000E+00  0.00000000E+00
  0.00000000E+00  0.00000000E+00  0.00000000E+00
  0.00000000E+00  0.00000000E+00  0.00000000E+00
  0.00000000E+00  0.00000000E+00  0.00000000E+00
  0.00000000E+00  0.00000000E+00  0.00000000E+00
  0.00000000E+00  0.00000000E+00  0.00000000E+00
  0.00000000E+00  0.00000000E+00  0.00000000E+00
  0.00000000E+00  0.00000000E+00  0.00000000E+00
  0.00000000E+00  0.00000000E+00  0.00000000E+00
  0.00000000E+00  0.00000000E+00  0.00000000E+00
  0.00000000E+00  0.00000000E+00  0.00000000E+00
  0.00000000E+00  0.00000000E+00  0.00000000E+00
  0.00000000E+00  0.00000000E+00  0.00000000E+00
