XCrySDen XSF file                       
   1.00000000000000     
     8.7557991760000000    0.0014347150000000    0.0000000000000000
    -4.3767975578999998    7.6214061294000004    0.0000000000000000
     0.0000000000000000    0.0000000000000000   37.2496528624999996
   O    Si   C    Fe   H 
    35    17     3     1    10
Selective dynamics
Direct
  0.9555043898951752  0.1495212923068152  0.1621536808856305   T   T   T
  0.7591822390954945  0.3517426045501679  0.3008240578325641   T   T   T
  0.8901923099704376  0.1564522992024422  0.2793247118323947   T   T   T
  0.8599822952172005  0.3922155030240972  0.1674642779840241   T   T   T
  0.6966731096852783  0.3351013813014632  0.2303242863642225   T   T   T
  0.0594808205380701  0.4042030479537004  0.1132890812203016   T   T   T
  0.6158393407049090  0.4823924377289970  0.1779890231889851   T   T   T
  0.1927547723710816  0.4761769838442973  0.1792335365517985   T   T   T
  0.5293359995264737  0.7288105422102049  0.1729700486263752   T   T   T
  0.0855730002435067  0.5133502932128806  0.2768960030064633   T   T   T
  0.3696533306552539  0.6694382071105593  0.2356663422813412   T   T   T
  0.6258347172906582  0.6228292303527212  0.1150452824319572   T   T   T
  0.8642062224653486  0.8141849154414587  0.1639764081112531   T   T   T
  0.2799967591913983  0.8113631351261148  0.1816831340916067   T   T   T
  0.0916635528346958  0.0189306047429554  0.2866427607681672   T   T   T
  0.2824059629881361  0.8688707105155231  0.2722165857578318   T   T   T
  0.1907162514327467  0.0568855803196300  0.1806653240252629   T   T   T
  0.9270960399867505  0.9917082966725204  0.2248189833528400   T   T   T
  0.2932075886174275  0.9728937923603880  0.1206144307455261   T   T   T
  0.5256340517765707  0.1451673469593402  0.1728661122032307   T   T   T
  0.4305795163534327  0.2225001437300946  0.2766676495233682   T   T   T
  0.3150220478608361  0.0128599495153310  0.3352501403294497   T   T   T
  0.0074466786946275  0.3317601432502642  0.3396874325504200   T   T   T
  0.8519026548236255  0.2830175594713253  0.0551449434329641   F   F   F
  0.0951290703909677  0.1962062500681228  0.0664311962619948   F   F   F
  0.6435061004821563  0.2870409626520285  0.0062649442898532   F   F   F
  0.5342505975073450  0.6405541733069029  0.0487701726162655   F   F   F
  0.7536336798323902  0.5232028949451859  0.0605608865222749   F   F   F
  0.1884386539624359  0.5237256191923763  0.0485992448488659   F   F   F
  0.4053503219012455  0.7543798795387815  0.0000624435349366   F   F   F
  0.8628040147043095  0.8597701015906765  0.0708431568407093   F   F   F
  0.1980164363965571  0.9666622901026898  0.0524192536023804   F   F   F
  0.4136195077532392  0.8496939362550080  0.0695734000412358   F   F   F
  0.9973891234368253  0.9975160622311918  0.0056476767924920   F   F   F
  0.5247471974274660  0.1914274233066635  0.0742682357393178   F   F   F
  0.6740418893554505  0.3376327756868136  0.1868412377417172   T   T   T
  0.6363932767860021  0.3664179650313173  0.2696580868053857   T   T   T
  0.9405866488866792  0.3396679396527134  0.2988243582671544   T   T   T
  0.0170944909769304  0.3547325866028999  0.1555852323014832   T   T   T
  0.3418297419078939  0.6710546308482250  0.1923088789935505   T   T   T
  0.6605670382065938  0.6633244919364216  0.1576145626188747   T   T   T
  0.2857587827872052  0.6837518963580678  0.2743751357027406   T   T   T
  0.9844083612162606  0.0037611611576551  0.1833740497415093   T   T   T
  0.2796440043693806  0.0311647328133020  0.2924680299773499   T   T   T
  0.3237059885289852  0.9971903631513328  0.1637493991117722   T   T   T
  0.9048070899555043  0.9806243475478311  0.2685778365897136   T   T   T
  0.6910775286213138  0.3220183334983560  0.0490122419862331   F   F   F
  0.0488218800347937  0.3525782393554096  0.0710278297026363   F   F   F
  0.6956272616535770  0.6628020981124365  0.0740326899200809   F   F   F
  0.3826362099072469  0.6925289029972745  0.0420185392271293   F   F   F
  0.3577053617196455  0.9957002245921984  0.0791641739826403   F   F   F
  0.0343120767440013  0.0047479128305739  0.0487926426243206   F   F   F
  0.4257899468254749  0.6887323600980366  0.3119802691773401   T   T   T
  0.6824261995749126  0.5983182697532783  0.2740943319030791   T   T   T
  0.7654686398056540  0.7649395347715213  0.3369236309368304   T   T   T
  0.6514147574981735  0.7465786826768692  0.2907592957065432   T   T   T
  0.0409798669041024  0.4337003130218733  0.3546275331893582   T   T   T
  0.3095574064752853  0.0961988047679867  0.3514085778331264   T   T   T
  0.4435081680125776  0.7877804224870033  0.3321719182677043   T   T   T
  0.8968100144780493  0.7798058244243862  0.3353135567888472   T   T   T
  0.7747903707039256  0.8865336881186536  0.3475735965271909   T   T   T
  0.6785677404014692  0.6537404014071058  0.3541533615172696   T   T   T
  0.3672455031501656  0.5593006012930957  0.3248946601107008   T   T   T
  0.5597210424564452  0.3178860854139103  0.9966964024348286   F   F   F
  0.3228679134789729  0.7872232072001992  0.9905822783424298   F   F   F
  0.8930907648007320  0.0009213088981426  0.9978161175675808   F   F   F
 
  0.00000000E+00  0.00000000E+00  0.00000000E+00
  0.00000000E+00  0.00000000E+00  0.00000000E+00
  0.00000000E+00  0.00000000E+00  0.00000000E+00
  0.00000000E+00  0.00000000E+00  0.00000000E+00
  0.00000000E+00  0.00000000E+00  0.00000000E+00
  0.00000000E+00  0.00000000E+00  0.00000000E+00
  0.00000000E+00  0.00000000E+00  0.00000000E+00
  0.00000000E+00  0.00000000E+00  0.00000000E+00
  0.00000000E+00  0.00000000E+00  0.00000000E+00
  0.00000000E+00  0.00000000E+00  0.00000000E+00
  0.00000000E+00  0.00000000E+00  0.00000000E+00
  0.00000000E+00  0.00000000E+00  0.00000000E+00
  0.00000000E+00  0.00000000E+00  0.00000000E+00
  0.00000000E+00  0.00000000E+00  0.00000000E+00
  0.00000000E+00  0.00000000E+00  0.00000000E+00
  0.00000000E+00  0.00000000E+00  0.00000000E+00
  0.00000000E+00  0.00000000E+00  0.00000000E+00
  0.00000000E+00  0.00000000E+00  0.00000000E+00
  0.00000000E+00  0.00000000E+00  0.00000000E+00
  0.00000000E+00  0.00000000E+00  0.00000000E+00
  0.00000000E+00  0.00000000E+00  0.00000000E+00
  0.00000000E+00  0.00000000E+00  0.00000000E+00
  0.00000000E+00  0.00000000E+00  0.00000000E+00
  0.00000000E+00  0.00000000E+00  0.00000000E+00
  0.00000000E+00  0.00000000E+00  0.00000000E+00
  0.00000000E+00  0.00000000E+00  0.00000000E+00
  0.00000000E+00  0.00000000E+00  0.00000000E+00
  0.00000000E+00  0.00000000E+00  0.00000000E+00
  0.00000000E+00  0.00000000E+00  0.00000000E+00
  0.00000000E+00  0.00000000E+00  0.00000000E+00
  0.00000000E+00  0.00000000E+00  0.00000000E+00
  0.00000000E+00  0.00000000E+00  0.00000000E+00
  0.00000000E+00  0.00000000E+00  0.00000000E+00
  0.00000000E+00  0.00000000E+00  0.00000000E+00
  0.00000000E+00  0.00000000E+00  0.00000000E+00
  0.00000000E+00  0.00000000E+00  0.00000000E+00
  0.00000000E+00  0.00000000E+00  0.00000000E+00
  0.00000000E+00  0.00000000E+00  0.00000000E+00
  0.00000000E+00  0.00000000E+00  0.00000000E+00
  0.00000000E+00  0.00000000E+00  0.00000000E+00
  0.00000000E+00  0.00000000E+00  0.00000000E+00
  0.00000000E+00  0.00000000E+00  0.00000000E+00
  0.00000000E+00  0.00000000E+00  0.00000000E+00
  0.00000000E+00  0.00000000E+00  0.00000000E+00
  0.00000000E+00  0.00000000E+00  0.00000000E+00
  0.00000000E+00  0.00000000E+00  0.00000000E+00
  0.00000000E+00  0.00000000E+00  0.00000000E+00
  0.00000000E+00  0.00000000E+00  0.00000000E+00
  0.00000000E+00  0.00000000E+00  0.00000000E+00
  0.00000000E+00  0.00000000E+00  0.00000000E+00
  0.00000000E+00  0.00000000E+00  0.00000000E+00
  0.00000000E+00  0.00000000E+00  0.00000000E+00
  0.00000000E+00  0.00000000E+00  0.00000000E+00
  0.00000000E+00  0.00000000E+00  0.00000000E+00
  0.00000000E+00  0.00000000E+00  0.00000000E+00
  0.00000000E+00  0.00000000E+00  0.00000000E+00
  0.00000000E+00  0.00000000E+00  0.00000000E+00
  0.00000000E+00  0.00000000E+00  0.00000000E+00
  0.00000000E+00  0.00000000E+00  0.00000000E+00
  0.00000000E+00  0.00000000E+00  0.00000000E+00
  0.00000000E+00  0.00000000E+00  0.00000000E+00
  0.00000000E+00  0.00000000E+00  0.00000000E+00
  0.00000000E+00  0.00000000E+00  0.00000000E+00
  0.00000000E+00  0.00000000E+00  0.00000000E+00
  0.00000000E+00  0.00000000E+00  0.00000000E+00
  0.00000000E+00  0.00000000E+00  0.00000000E+00
