XCrySDen XSF file                       
   1.00000000000000     
     8.7557991760000000    0.0014347150000000    0.0000000000000000
    -4.3767975578999998    7.6214061294000004    0.0000000000000000
     0.0000000000000000    0.0000000000000000   37.2496528624999996
   O    Si   C    Fe   H 
    35    17     3     1     9
Selective dynamics
Direct
  0.9292983169520569  0.1580299577479296  0.1643175598748594   T   T   T
  0.8629041829992917  0.3417265651204296  0.2881666025185183   T   T   T
  0.0140122653319752  0.1489547592822964  0.2937161345514436   T   T   T
  0.8352297151239980  0.4007380445072954  0.1579724642322666   T   T   T
  0.7279970989102490  0.3435670135794413  0.2248311282503830   T   T   T
  0.0668297888720393  0.4060473937943298  0.1132339971525273   T   T   T
  0.6014252321699869  0.4905090401869817  0.1800943230750325   T   T   T
  0.1584006802043526  0.4846410645341461  0.1817865697192199   T   T   T
  0.4953755720253421  0.7207225407131282  0.1686204134407009   T   T   T
  0.2149579489702971  0.5003330550486278  0.2928787732323897   T   T   T
  0.3673537238962101  0.6810291573719883  0.2344225351550784   T   T   T
  0.6269889993565168  0.6231207198669433  0.1151993920830898   T   T   T
  0.8383154944275923  0.8234235865630759  0.1669526164654524   T   T   T
  0.2643692181406004  0.8234582116760196  0.1838143626373837   T   T   T
  0.1770181012347810  0.0057260829561908  0.2632670541608584   T   T   T
  0.3251839646957826  0.8419944298435843  0.2922453612515016   T   T   T
  0.1705055652010024  0.0654350774131200  0.1769190042301899   T   T   T
  0.9258501893746042  0.0136668368961917  0.2268671261278682   T   T   T
  0.2887815104983578  0.9709964359448277  0.1203291045002078   T   T   T
  0.5071936610123146  0.1543364521056597  0.1731566744396577   T   T   T
  0.5163133037653541  0.1920134213002284  0.2803680083364528   T   T   T
  0.2804759846562572  0.0528396195009626  0.3337106511127596   T   T   T
  0.0174684860286951  0.3231542608457991  0.3494134853881276   T   T   T
  0.8519290592831936  0.2831512378372096  0.0551449455000963   F   F   F
  0.0951007800226762  0.1962056325427852  0.0664311973895266   F   F   F
  0.6435122639508180  0.2871351333529475  0.0062649441824689   F   F   F
  0.5341793733256353  0.6405944727190089  0.0487701749518550   F   F   F
  0.7536053152078566  0.5232955158714461  0.0605608868175764   F   F   F
  0.1883570345577468  0.5237117784525367  0.0485992416273646   F   F   F
  0.4052454233984548  0.7543852391140078  0.0000624435349366   F   F   F
  0.8627220604521284  0.8598515769208817  0.0708431599011377   F   F   F
  0.1978518149578221  0.9666086994911609  0.0524192516963211   F   F   F
  0.4134972603595273  0.8496917911639912  0.0695734043097360   F   F   F
  0.9972936637028056  0.9976098862507214  0.0056476771414893   F   F   F
  0.5247602006511727  0.1915081818089135  0.0742682395245922   F   F   F
  0.6660333522525080  0.3469600666611051  0.1838168202143541   T   T   T
  0.7057000755058123  0.3526466108547256  0.2677813318543936   T   T   T
  0.0285276563103931  0.3331908135596902  0.3054172829416155   T   T   T
  0.9987676886028808  0.3623661203340585  0.1544816101383791   T   T   T
  0.3216607942980186  0.6773637700694992  0.1921364926460971   T   T   T
  0.6413620879060395  0.6660167886549409  0.1577745664221586   T   T   T
  0.3670075776444136  0.6910423445914814  0.2780032458754383   T   T   T
  0.9675068773450998  0.0154053241424292  0.1841446504944215   T   T   T
  0.3259205856871074  0.0265834987644315  0.2922761791420238   T   T   T
  0.3079145507660178  0.0040576927828632  0.1633963433831279   T   T   T
  0.9787395981565407  0.9827218712557482  0.2674012802266451   T   T   T
  0.6910814158987222  0.3221181295740294  0.0490122440533654   F   F   F
  0.0487595369705716  0.3525542246851003  0.0710278288167245   F   F   F
  0.6955669792440489  0.6628706981160590  0.0740326861616509   F   F   F
  0.3825407958196010  0.6925357489639055  0.0420185394955936   F   F   F
  0.3575500675001422  0.9956737883685420  0.0791641802645771   F   F   F
  0.0343144165852252  0.0047539716394382  0.0487926409061856   F   F   F
  0.5865752455038905  0.7622605933022373  0.2971397283146832   T   T   T
  0.7404526594873063  0.5719641819260726  0.2800571808565165   T   T   T
  0.8403743693176320  0.7079821211487609  0.3492914110776684   T   T   T
  0.7709864332946678  0.7414568948994985  0.3012940675315924   T   T   T
  0.0396067061126867  0.4282261395449144  0.3621085794957608   T   T   T
  0.2407538061131071  0.1365340603528815  0.3376930154959941   T   T   T
  0.8480674964239724  0.8196251873630244  0.3643366334933626   T   T   T
  0.7471224673642171  0.5841949363190222  0.3622650606960239   T   T   T
  0.6354717654267110  0.8760594779270015  0.3159948876938135   T   T   T
  0.9720282335445786  0.7221390918820102  0.3475319634098428   T   T   T
  0.5597134410968891  0.3179615437868222  0.9966963901662567   F   F   F
  0.3227489896947091  0.7872099345341610  0.9905822695638307   F   F   F
  0.8931745130129656  0.0010892845739505  0.9978161294603112   F   F   F
 
  0.00000000E+00  0.00000000E+00  0.00000000E+00
  0.00000000E+00  0.00000000E+00  0.00000000E+00
  0.00000000E+00  0.00000000E+00  0.00000000E+00
  0.00000000E+00  0.00000000E+00  0.00000000E+00
  0.00000000E+00  0.00000000E+00  0.00000000E+00
  0.00000000E+00  0.00000000E+00  0.00000000E+00
  0.00000000E+00  0.00000000E+00  0.00000000E+00
  0.00000000E+00  0.00000000E+00  0.00000000E+00
  0.00000000E+00  0.00000000E+00  0.00000000E+00
  0.00000000E+00  0.00000000E+00  0.00000000E+00
  0.00000000E+00  0.00000000E+00  0.00000000E+00
  0.00000000E+00  0.00000000E+00  0.00000000E+00
  0.00000000E+00  0.00000000E+00  0.00000000E+00
  0.00000000E+00  0.00000000E+00  0.00000000E+00
  0.00000000E+00  0.00000000E+00  0.00000000E+00
  0.00000000E+00  0.00000000E+00  0.00000000E+00
  0.00000000E+00  0.00000000E+00  0.00000000E+00
  0.00000000E+00  0.00000000E+00  0.00000000E+00
  0.00000000E+00  0.00000000E+00  0.00000000E+00
  0.00000000E+00  0.00000000E+00  0.00000000E+00
  0.00000000E+00  0.00000000E+00  0.00000000E+00
  0.00000000E+00  0.00000000E+00  0.00000000E+00
  0.00000000E+00  0.00000000E+00  0.00000000E+00
  0.00000000E+00  0.00000000E+00  0.00000000E+00
  0.00000000E+00  0.00000000E+00  0.00000000E+00
  0.00000000E+00  0.00000000E+00  0.00000000E+00
  0.00000000E+00  0.00000000E+00  0.00000000E+00
  0.00000000E+00  0.00000000E+00  0.00000000E+00
  0.00000000E+00  0.00000000E+00  0.00000000E+00
  0.00000000E+00  0.00000000E+00  0.00000000E+00
  0.00000000E+00  0.00000000E+00  0.00000000E+00
  0.00000000E+00  0.00000000E+00  0.00000000E+00
  0.00000000E+00  0.00000000E+00  0.00000000E+00
  0.00000000E+00  0.00000000E+00  0.00000000E+00
  0.00000000E+00  0.00000000E+00  0.00000000E+00
  0.00000000E+00  0.00000000E+00  0.00000000E+00
  0.00000000E+00  0.00000000E+00  0.00000000E+00
  0.00000000E+00  0.00000000E+00  0.00000000E+00
  0.00000000E+00  0.00000000E+00  0.00000000E+00
  0.00000000E+00  0.00000000E+00  0.00000000E+00
  0.00000000E+00  0.00000000E+00  0.00000000E+00
  0.00000000E+00  0.00000000E+00  0.00000000E+00
  0.00000000E+00  0.00000000E+00  0.00000000E+00
  0.00000000E+00  0.00000000E+00  0.00000000E+00
  0.00000000E+00  0.00000000E+00  0.00000000E+00
  0.00000000E+00  0.00000000E+00  0.00000000E+00
  0.00000000E+00  0.00000000E+00  0.00000000E+00
  0.00000000E+00  0.00000000E+00  0.00000000E+00
  0.00000000E+00  0.00000000E+00  0.00000000E+00
  0.00000000E+00  0.00000000E+00  0.00000000E+00
  0.00000000E+00  0.00000000E+00  0.00000000E+00
  0.00000000E+00  0.00000000E+00  0.00000000E+00
  0.00000000E+00  0.00000000E+00  0.00000000E+00
  0.00000000E+00  0.00000000E+00  0.00000000E+00
  0.00000000E+00  0.00000000E+00  0.00000000E+00
  0.00000000E+00  0.00000000E+00  0.00000000E+00
  0.00000000E+00  0.00000000E+00  0.00000000E+00
  0.00000000E+00  0.00000000E+00  0.00000000E+00
  0.00000000E+00  0.00000000E+00  0.00000000E+00
  0.00000000E+00  0.00000000E+00  0.00000000E+00
  0.00000000E+00  0.00000000E+00  0.00000000E+00
  0.00000000E+00  0.00000000E+00  0.00000000E+00
  0.00000000E+00  0.00000000E+00  0.00000000E+00
  0.00000000E+00  0.00000000E+00  0.00000000E+00
  0.00000000E+00  0.00000000E+00  0.00000000E+00
