XCrySDen XSF file                       
   1.00000000000000     
     8.7557992935000009    0.0000000000000000    0.0000000000000000
    -4.3755486645000001    7.6221232039000002    0.0000000000000000
     0.0000000000000000    0.0000000000000000   37.2496528624999996
   O    Si   C    Fe   H 
    35    17     4     1     8
Selective dynamics
Direct
  0.9389344637263060  0.1262297426166306  0.1587804871005988   T   T   T
  0.8573405319393789  0.3712188010357032  0.2934876813359238   T   T   T
  0.0695918938995877  0.2476778198205411  0.2807910527835602   T   T   T
  0.8302604734284156  0.3595865936120470  0.1602502116197933   T   T   T
  0.7123407864626375  0.3010747510015790  0.2270450484293734   T   T   T
  0.0665647166014297  0.4021389895014563  0.1134146257579200   T   T   T
  0.5996663952893231  0.4533834908762475  0.1775329215154602   T   T   T
  0.1558960098626778  0.4462430515470697  0.1824194713649775   T   T   T
  0.4943799012235647  0.6861917531568202  0.1750217572846907   T   T   T
  0.2050375021341481  0.5842424396403689  0.3008620921054378   T   T   T
  0.3124206656287161  0.6770271512718800  0.2343748597783182   T   T   T
  0.6311223358372221  0.6260725742514757  0.1159848448862529   T   T   T
  0.8345641424721798  0.7933769574323889  0.1724911270763509   T   T   T
  0.2477792292107622  0.7783394999796186  0.1734657195986004   T   T   T
  0.1818916398832626  0.0279425090932608  0.2690732410084780   T   T   T
  0.4045400554424508  0.9249764344319603  0.2860840039464943   T   T   T
  0.1700361942438567  0.0330452364163962  0.1809166485767471   T   T   T
  0.9357904454728176  0.0254716897249125  0.2265928675770714   T   T   T
  0.2846150594466555  0.9792608710064874  0.1194573092938955   T   T   T
  0.5021964670773560  0.1128338211934427  0.1752832565943384   T   T   T
  0.5204114914938210  0.2664939061556317  0.2858166924363096   T   T   T
  0.2923389926564878  0.0693125836753833  0.3363670458799451   T   T   T
  0.0379270307927881  0.3427207915000046  0.3486141945256731   T   T   T
  0.8519818603517848  0.2834186672415200  0.0551449434329641   F   F   F
  0.0950442539208964  0.1962045167722835  0.0664311962619948   F   F   F
  0.6435243804665305  0.2873233535348021  0.0062649442898532   F   F   F
  0.5340368832223561  0.6406750283833489  0.0487701726162655   F   F   F
  0.7535487030588044  0.5234809111926211  0.0605608865222749   F   F   F
  0.1881938317753793  0.5236841354070023  0.0485992448488659   F   F   F
  0.4050355164736175  0.7543958351470721  0.0000624435349366   F   F   F
  0.8625582792101696  0.8600146999258627  0.0708431568407093   F   F   F
  0.1975223989154387  0.9665013019247226  0.0524192536023804   F   F   F
  0.4132527475511694  0.8496875249518681  0.0695734000412358   F   F   F
  0.9971027802074630  0.9977975685447547  0.0056476767924920   F   F   F
  0.5247863137266933  0.1916698222947204  0.0742682357393178   F   F   F
  0.6598385014406042  0.3080986296682715  0.1852438933887861   T   T   T
  0.7144126966111966  0.3788161022723628  0.2671474200457960   T   T   T
  0.0422191370332508  0.3839846632490024  0.3056366512957654   T   T   T
  0.9986571773953508  0.3326341331905752  0.1539293953429908   T   T   T
  0.3062456945800497  0.6473064742705169  0.1914192083820576   T   T   T
  0.6404033030461425  0.6397664573539698  0.1596475359543319   T   T   T
  0.3655774242333211  0.7294578855728456  0.2762610908526915   T   T   T
  0.9691814690765382 -0.0052358009367525  0.1849809824639403   T   T   T
  0.3508460936239383  0.0740121648593287  0.2942386981173091   T   T   T
  0.3025007993627832  0.9773044068613416  0.1625869863452079   T   T   T
  0.0004631111495786  0.0434662094961676  0.2688548985190850   T   T   T
  0.6910891230530325  0.3223176711107172  0.0490122419862331   F   F   F
  0.0486349901715357  0.3525062411252051  0.0710278297026363   F   F   F
  0.6954463677419866  0.6630077820592390  0.0740326899200809   F   F   F
  0.3823500945200209  0.6925494194713409  0.0420185392271293   F   F   F
  0.3572396420070518  0.9956208784603575  0.0791641739826403   F   F   F
  0.0343190646981597  0.0047659948584169  0.0487926426243206   F   F   F
  0.5739881508315928  0.7310526130744543  0.2827600841870035   T   T   T
  0.6348679952086607  0.6434361124236019  0.2651151243925844   T   T   T
  0.7669410373804011  0.6073601768304550  0.2588813563960156   T   T   T
  0.8372313946142996  0.9070454058009702  0.3402187813304499   T   T   T
  0.8005098808681914  0.8023984014043354  0.2990537342555837   T   T   T
 -0.0196748008866959  0.2192757096033118  0.3548567826293362   T   T   T
  0.3840536336677451  0.1474399065071691  0.3526538188675898   T   T   T
  0.8484939648982689  0.6663812106868144  0.2349632739297753   T   T   T
  0.7555006346678158  0.9364185196394699  0.3581324995818572   T   T   T
  0.9619871353190683  0.9293339192020623  0.3527973267367239   T   T   T
  0.5596981128695120  0.3181124123996497  0.9966964024348286   F   F   F
  0.3225111365496645  0.7871832873194649  0.9905822783424298   F   F   F
  0.8933420371027765  0.0014253246384754  0.9978161175675808   F   F   F
 
  0.00000000E+00  0.00000000E+00  0.00000000E+00
  0.00000000E+00  0.00000000E+00  0.00000000E+00
  0.00000000E+00  0.00000000E+00  0.00000000E+00
  0.00000000E+00  0.00000000E+00  0.00000000E+00
  0.00000000E+00  0.00000000E+00  0.00000000E+00
  0.00000000E+00  0.00000000E+00  0.00000000E+00
  0.00000000E+00  0.00000000E+00  0.00000000E+00
  0.00000000E+00  0.00000000E+00  0.00000000E+00
  0.00000000E+00  0.00000000E+00  0.00000000E+00
  0.00000000E+00  0.00000000E+00  0.00000000E+00
  0.00000000E+00  0.00000000E+00  0.00000000E+00
  0.00000000E+00  0.00000000E+00  0.00000000E+00
  0.00000000E+00  0.00000000E+00  0.00000000E+00
  0.00000000E+00  0.00000000E+00  0.00000000E+00
  0.00000000E+00  0.00000000E+00  0.00000000E+00
  0.00000000E+00  0.00000000E+00  0.00000000E+00
  0.00000000E+00  0.00000000E+00  0.00000000E+00
  0.00000000E+00  0.00000000E+00  0.00000000E+00
  0.00000000E+00  0.00000000E+00  0.00000000E+00
  0.00000000E+00  0.00000000E+00  0.00000000E+00
  0.00000000E+00  0.00000000E+00  0.00000000E+00
  0.00000000E+00  0.00000000E+00  0.00000000E+00
  0.00000000E+00  0.00000000E+00  0.00000000E+00
  0.00000000E+00  0.00000000E+00  0.00000000E+00
  0.00000000E+00  0.00000000E+00  0.00000000E+00
  0.00000000E+00  0.00000000E+00  0.00000000E+00
  0.00000000E+00  0.00000000E+00  0.00000000E+00
  0.00000000E+00  0.00000000E+00  0.00000000E+00
  0.00000000E+00  0.00000000E+00  0.00000000E+00
  0.00000000E+00  0.00000000E+00  0.00000000E+00
  0.00000000E+00  0.00000000E+00  0.00000000E+00
  0.00000000E+00  0.00000000E+00  0.00000000E+00
  0.00000000E+00  0.00000000E+00  0.00000000E+00
  0.00000000E+00  0.00000000E+00  0.00000000E+00
  0.00000000E+00  0.00000000E+00  0.00000000E+00
  0.00000000E+00  0.00000000E+00  0.00000000E+00
  0.00000000E+00  0.00000000E+00  0.00000000E+00
  0.00000000E+00  0.00000000E+00  0.00000000E+00
  0.00000000E+00  0.00000000E+00  0.00000000E+00
  0.00000000E+00  0.00000000E+00  0.00000000E+00
  0.00000000E+00  0.00000000E+00  0.00000000E+00
  0.00000000E+00  0.00000000E+00  0.00000000E+00
  0.00000000E+00  0.00000000E+00  0.00000000E+00
  0.00000000E+00  0.00000000E+00  0.00000000E+00
  0.00000000E+00  0.00000000E+00  0.00000000E+00
  0.00000000E+00  0.00000000E+00  0.00000000E+00
  0.00000000E+00  0.00000000E+00  0.00000000E+00
  0.00000000E+00  0.00000000E+00  0.00000000E+00
  0.00000000E+00  0.00000000E+00  0.00000000E+00
  0.00000000E+00  0.00000000E+00  0.00000000E+00
  0.00000000E+00  0.00000000E+00  0.00000000E+00
  0.00000000E+00  0.00000000E+00  0.00000000E+00
  0.00000000E+00  0.00000000E+00  0.00000000E+00
  0.00000000E+00  0.00000000E+00  0.00000000E+00
  0.00000000E+00  0.00000000E+00  0.00000000E+00
  0.00000000E+00  0.00000000E+00  0.00000000E+00
  0.00000000E+00  0.00000000E+00  0.00000000E+00
  0.00000000E+00  0.00000000E+00  0.00000000E+00
  0.00000000E+00  0.00000000E+00  0.00000000E+00
  0.00000000E+00  0.00000000E+00  0.00000000E+00
  0.00000000E+00  0.00000000E+00  0.00000000E+00
  0.00000000E+00  0.00000000E+00  0.00000000E+00
  0.00000000E+00  0.00000000E+00  0.00000000E+00
  0.00000000E+00  0.00000000E+00  0.00000000E+00
  0.00000000E+00  0.00000000E+00  0.00000000E+00
