XCrySDen XSF file                       
   1.00000000000000     
     8.7557992935000009    0.0000000000000000    0.0000000000000000
    -4.3755486645000001    7.6221232039000002    0.0000000000000000
     0.0000000000000000    0.0000000000000000   37.2496528624999996
   O    Si   C    Fe   H 
    35    17     3     1     6
Selective dynamics
Direct
  0.9430643639982996  0.1495080153631938  0.1596263969850268   T   T   T
  0.7510071001770591  0.2394340452645200  0.2933271678640828   T   T   T
  0.0077391128756970  0.1582587103704671  0.2888780569174104   T   T   T
  0.8435751593773706  0.3912535060000703  0.1598147454701050   T   T   T
  0.7249280006243544  0.3326532938696681  0.2259020297487861   T   T   T
  0.0713228768627177  0.4118126828227549  0.1128165894303999   T   T   T
  0.6069971502130043  0.4796056553208185  0.1789165996280042   T   T   T
  0.1679213589180730  0.4728829794477574  0.1815306320939944   T   T   T
  0.5070692144700213  0.7147385780062119  0.1731017823373756   T   T   T
  0.0733488887671001  0.4869570353723168  0.2792240901020093   T   T   T
  0.3537492254549964  0.6687844239315361  0.2369318663078995   T   T   T
  0.6248230513167127  0.6238968021928402  0.1152522751574163   T   T   T
  0.8470051131803237  0.8138128819521367  0.1663762921846384   T   T   T
  0.2686096270081861  0.8118263786172124  0.1828620997769281   T   T   T
  0.0966710403464082  0.9282778042837494  0.2691007681885011   T   T   T
  0.2997373748079480  0.8145419340284263  0.2966763409934129   T   T   T
  0.1771207285525222  0.0556070196173178  0.1790674728349227   T   T   T
  0.9211394581813752  0.0193220066775227  0.2240292378134287   T   T   T
  0.2879895538728995  0.9687351885592475  0.1203526493886931   T   T   T
  0.5135858979505938  0.1434877639644891  0.1724856282427269   T   T   T
  0.4403893079113256  0.1147298249517863  0.2621184059453794   T   T   T
  0.2869969227409437  0.0790435085552975  0.3279365709169836   T   T   T
 -0.0077971460762455  0.3369279916293876  0.3449243559004312   T   T   T
  0.8519818603517848  0.2834186672415200  0.0551449434329641   F   F   F
  0.0950442539208964  0.1962045167722835  0.0664311962619948   F   F   F
  0.6435243804665305  0.2873233535348021  0.0062649442898532   F   F   F
  0.5340368832223561  0.6406750283833489  0.0487701726162655   F   F   F
  0.7535487030588044  0.5234809111926211  0.0605608865222749   F   F   F
  0.1881938317753793  0.5236841354070023  0.0485992448488659   F   F   F
  0.4050355164736175  0.7543958351470721  0.0000624435349366   F   F   F
  0.8625582792101696  0.8600146999258627  0.0708431568407093   F   F   F
  0.1975223989154387  0.9665013019247226  0.0524192536023804   F   F   F
  0.4132527475511694  0.8496875249518681  0.0695734000412358   F   F   F
  0.9971027802074630  0.9977975685447547  0.0056476767924920   F   F   F
  0.5247863137266933  0.1916698222947204  0.0742682357393178   F   F   F
  0.6703002525101849  0.3357964439705168  0.1841840394408653   T   T   T
  0.6361679265698315  0.2863387649988440  0.2655747827902011   T   T   T
  0.9576123554236119  0.3043437303530364  0.3014293756762232   T   T   T
  0.0072953667877871  0.3559079019234996  0.1539502579960343   T   T   T
  0.3241134207145323  0.6667658146080512  0.1934615169575281   T   T   T
  0.6471002422001060  0.6589012096437458  0.1582447909884416   T   T   T
  0.2814673453059821  0.6386260654444211  0.2782940137449684   T   T   T
  0.9730508175566772  0.0091124207687103  0.1826509611386792   T   T   T
  0.2810390239887361  0.9863649785304794  0.2890785601076505   T   T   T
  0.3123277282991193 -0.0047169521545959  0.1635898449753791   T   T   T
  0.9336712664479641  0.9717860288246368  0.2663169879517713   T   T   T
  0.6910891230530325  0.3223176711107172  0.0490122419862331   F   F   F
  0.0486349901715357  0.3525062411252051  0.0710278297026363   F   F   F
  0.6954463677419866  0.6630077820592390  0.0740326899200809   F   F   F
  0.3823500945200209  0.6925494194713409  0.0420185392271293   F   F   F
  0.3572396420070518  0.9956208784603575  0.0791641739826403   F   F   F
  0.0343190646981597  0.0047659948584169  0.0487926426243206   F   F   F
  0.4144677068855032  0.5820013866592953  0.3080244511526800   T   T   T
  0.4889559458422579  0.4866353494219497  0.2956858618537604   T   T   T
  0.6158670513188431  0.4685530301687878  0.2831497659375735   T   T   T
  0.6940262885242574  0.7257762788653395  0.2932743012750753   T   T   T
  0.0399257446648961  0.2692310601837886  0.3556927438192806   T   T   T
  0.3732224585187253  0.0832593787613287  0.3447842757645371   T   T   T
  0.3768414723825918  0.5708351537852266  0.3363640432098846   T   T   T
  0.5596981128695120  0.3181124123996497  0.9966964024348286   F   F   F
  0.3225111365496645  0.7871832873194649  0.9905822783424298   F   F   F
  0.8933420371027765  0.0014253246384754  0.9978161175675808   F   F   F
 
  0.00000000E+00  0.00000000E+00  0.00000000E+00
  0.00000000E+00  0.00000000E+00  0.00000000E+00
  0.00000000E+00  0.00000000E+00  0.00000000E+00
  0.00000000E+00  0.00000000E+00  0.00000000E+00
  0.00000000E+00  0.00000000E+00  0.00000000E+00
  0.00000000E+00  0.00000000E+00  0.00000000E+00
  0.00000000E+00  0.00000000E+00  0.00000000E+00
  0.00000000E+00  0.00000000E+00  0.00000000E+00
  0.00000000E+00  0.00000000E+00  0.00000000E+00
  0.00000000E+00  0.00000000E+00  0.00000000E+00
  0.00000000E+00  0.00000000E+00  0.00000000E+00
  0.00000000E+00  0.00000000E+00  0.00000000E+00
  0.00000000E+00  0.00000000E+00  0.00000000E+00
  0.00000000E+00  0.00000000E+00  0.00000000E+00
  0.00000000E+00  0.00000000E+00  0.00000000E+00
  0.00000000E+00  0.00000000E+00  0.00000000E+00
  0.00000000E+00  0.00000000E+00  0.00000000E+00
  0.00000000E+00  0.00000000E+00  0.00000000E+00
  0.00000000E+00  0.00000000E+00  0.00000000E+00
  0.00000000E+00  0.00000000E+00  0.00000000E+00
  0.00000000E+00  0.00000000E+00  0.00000000E+00
  0.00000000E+00  0.00000000E+00  0.00000000E+00
  0.00000000E+00  0.00000000E+00  0.00000000E+00
  0.00000000E+00  0.00000000E+00  0.00000000E+00
  0.00000000E+00  0.00000000E+00  0.00000000E+00
  0.00000000E+00  0.00000000E+00  0.00000000E+00
  0.00000000E+00  0.00000000E+00  0.00000000E+00
  0.00000000E+00  0.00000000E+00  0.00000000E+00
  0.00000000E+00  0.00000000E+00  0.00000000E+00
  0.00000000E+00  0.00000000E+00  0.00000000E+00
  0.00000000E+00  0.00000000E+00  0.00000000E+00
  0.00000000E+00  0.00000000E+00  0.00000000E+00
  0.00000000E+00  0.00000000E+00  0.00000000E+00
  0.00000000E+00  0.00000000E+00  0.00000000E+00
  0.00000000E+00  0.00000000E+00  0.00000000E+00
  0.00000000E+00  0.00000000E+00  0.00000000E+00
  0.00000000E+00  0.00000000E+00  0.00000000E+00
  0.00000000E+00  0.00000000E+00  0.00000000E+00
  0.00000000E+00  0.00000000E+00  0.00000000E+00
  0.00000000E+00  0.00000000E+00  0.00000000E+00
  0.00000000E+00  0.00000000E+00  0.00000000E+00
  0.00000000E+00  0.00000000E+00  0.00000000E+00
  0.00000000E+00  0.00000000E+00  0.00000000E+00
  0.00000000E+00  0.00000000E+00  0.00000000E+00
  0.00000000E+00  0.00000000E+00  0.00000000E+00
  0.00000000E+00  0.00000000E+00  0.00000000E+00
  0.00000000E+00  0.00000000E+00  0.00000000E+00
  0.00000000E+00  0.00000000E+00  0.00000000E+00
  0.00000000E+00  0.00000000E+00  0.00000000E+00
  0.00000000E+00  0.00000000E+00  0.00000000E+00
  0.00000000E+00  0.00000000E+00  0.00000000E+00
  0.00000000E+00  0.00000000E+00  0.00000000E+00
  0.00000000E+00  0.00000000E+00  0.00000000E+00
  0.00000000E+00  0.00000000E+00  0.00000000E+00
  0.00000000E+00  0.00000000E+00  0.00000000E+00
  0.00000000E+00  0.00000000E+00  0.00000000E+00
  0.00000000E+00  0.00000000E+00  0.00000000E+00
  0.00000000E+00  0.00000000E+00  0.00000000E+00
  0.00000000E+00  0.00000000E+00  0.00000000E+00
  0.00000000E+00  0.00000000E+00  0.00000000E+00
  0.00000000E+00  0.00000000E+00  0.00000000E+00
  0.00000000E+00  0.00000000E+00  0.00000000E+00
