XCrySDen XSF file                       
   1.00000000000000     
     8.7557992935000009    0.0000000000000000    0.0000000000000000
    -4.3755486645000001    7.6221232039000002    0.0000000000000000
     0.0000000000000000    0.0000000000000000   37.2496528624999996
   O    Si   C    Fe   H 
    35    17     4     1     7
Selective dynamics
Direct
  0.9376113177153048  0.1375573108634248  0.1571132800852390   T   T   T
  0.7576055801368902  0.2420057725226331  0.2917057660368449   T   T   T
  0.0424902433671958  0.2052247972678813  0.2827730805732768   T   T   T
  0.8318922551267359  0.3745663216064531  0.1603912391542167   T   T   T
  0.7227188877516804  0.3482563340100516  0.2270839234489027   T   T   T
  0.0661462197538812  0.4102019533195648  0.1128621989603212   T   T   T
  0.5932978521809639  0.4651868646263142  0.1767513359323876   T   T   T
  0.1569116093100552  0.4584390648935241  0.1815598800956890   T   T   T
  0.4963759647062360  0.7031308888620786  0.1729818621183587   T   T   T
  0.0749333308207700  0.5193925125376030  0.2858929707627862   T   T   T
  0.3397725737444922  0.6470664500750035  0.2367843607184336   T   T   T
  0.6240738854415624  0.6253776960588868  0.1150736460327532   T   T   T
  0.8370194754439255  0.8023696474518450  0.1686222020720037   T   T   T
  0.2580256444716041  0.7980731865439151  0.1827106554150683   T   T   T
  0.1074832319086655  0.9363737609323695  0.2666064837155680   T   T   T
  0.3367232270278532  0.8421801927244179  0.2912872601849718   T   T   T
  0.1701290737637609  0.0446284202910339  0.1786619479342994   T   T   T
  0.9232300207901915  0.0273637182584943  0.2231590361676949   T   T   T
  0.2933791156110457  0.9694101168221461  0.1208091369492519   T   T   T
  0.5061109826461530  0.1296928205065375  0.1767125058118493   T   T   T
  0.4423149193200697  0.1595750852515520  0.2670485390705404   T   T   T
  0.2801062436070518  0.0671168453539009  0.3300606484224373   T   T   T
  0.9935179332147779  0.3295921567469487  0.3452884000507265   T   T   T
  0.8519818603517848  0.2834186672415200  0.0551449434329641   F   F   F
  0.0950442539208964  0.1962045167722835  0.0664311962619948   F   F   F
  0.6435243804665305  0.2873233535348021  0.0062649442898532   F   F   F
  0.5340368832223561  0.6406750283833489  0.0487701726162655   F   F   F
  0.7535487030588044  0.5234809111926211  0.0605608865222749   F   F   F
  0.1881938317753793  0.5236841354070023  0.0485992448488659   F   F   F
  0.4050355164736175  0.7543958351470721  0.0000624435349366   F   F   F
  0.8625582792101696  0.8600146999258627  0.0708431568407093   F   F   F
  0.1975223989154387  0.9665013019247226  0.0524192536023804   F   F   F
  0.4132527475511694  0.8496875249518681  0.0695734000412358   F   F   F
  0.9971027802074630  0.9977975685447547  0.0056476767924920   F   F   F
  0.5247863137266933  0.1916698222947204  0.0742682357393178   F   F   F
  0.6618548177885596  0.3280170985957490  0.1852024123205224   T   T   T
  0.6475934847083789  0.3114450433548175  0.2680199129111677   T   T   T
  0.9644908424148063  0.3200918055861270  0.3017723441799612   T   T   T
  0.9981755168910494  0.3445389121922424  0.1534516693639417   T   T   T
  0.3129994614999134  0.6523185150241297  0.1934701617092479   T   T   T
  0.6386419348366579  0.6503486900846978  0.1582693883106666   T   T   T
  0.2869447498165401  0.6457662956374269  0.2788301625900561   T   T   T
  0.9677332074332260  0.0022437487866110  0.1819730491744512   T   T   T
  0.2892234552741554  0.9987567774232203  0.2896981088625724   T   T   T
  0.3080103505154010  0.9855331153082402  0.1643336118462908   T   T   T
  0.9611792984279902  0.0077895258378512  0.2655601725311181   T   T   T
  0.6910891230530325  0.3223176711107172  0.0490122419862331   F   F   F
  0.0486349901715357  0.3525062411252051  0.0710278297026363   F   F   F
  0.6954463677419866  0.6630077820592390  0.0740326899200809   F   F   F
  0.3823500945200209  0.6925494194713409  0.0420185392271293   F   F   F
  0.3572396420070518  0.9956208784603575  0.0791641739826403   F   F   F
  0.0343190646981597  0.0047659948584169  0.0487926426243206   F   F   F
  0.3997172249154105  0.5651280860526680  0.3107551062443029   T   T   T
  0.5597947865377921  0.5688981062890942  0.2990796971087372   T   T   T
  0.6546331148820214  0.5049650700184352  0.2875846937723578   T   T   T
  0.8682548305381319  0.8478348800965121  0.3332680919389404   T   T   T
  0.7955911013359869  0.7570035600199582  0.2958981783464612   T   T   T
  0.9474322582046077  0.2189435267161600  0.3579138679884146   T   T   T
  0.1697996100477431  0.9984270555123282  0.3430406845627256   T   T   T
  0.4253556585938306  0.6460632147685911  0.3350110712598337   T   T   T
  0.3041861343897340  0.4291280220145386  0.3184000409586747   T   T   T
  0.5596981128695120  0.3181124123996497  0.9966964024348286   F   F   F
  0.3225111365496645  0.7871832873194649  0.9905822783424298   F   F   F
  0.8933420371027765  0.0014253246384754  0.9978161175675808   F   F   F
 
  0.00000000E+00  0.00000000E+00  0.00000000E+00
  0.00000000E+00  0.00000000E+00  0.00000000E+00
  0.00000000E+00  0.00000000E+00  0.00000000E+00
  0.00000000E+00  0.00000000E+00  0.00000000E+00
  0.00000000E+00  0.00000000E+00  0.00000000E+00
  0.00000000E+00  0.00000000E+00  0.00000000E+00
  0.00000000E+00  0.00000000E+00  0.00000000E+00
  0.00000000E+00  0.00000000E+00  0.00000000E+00
  0.00000000E+00  0.00000000E+00  0.00000000E+00
  0.00000000E+00  0.00000000E+00  0.00000000E+00
  0.00000000E+00  0.00000000E+00  0.00000000E+00
  0.00000000E+00  0.00000000E+00  0.00000000E+00
  0.00000000E+00  0.00000000E+00  0.00000000E+00
  0.00000000E+00  0.00000000E+00  0.00000000E+00
  0.00000000E+00  0.00000000E+00  0.00000000E+00
  0.00000000E+00  0.00000000E+00  0.00000000E+00
  0.00000000E+00  0.00000000E+00  0.00000000E+00
  0.00000000E+00  0.00000000E+00  0.00000000E+00
  0.00000000E+00  0.00000000E+00  0.00000000E+00
  0.00000000E+00  0.00000000E+00  0.00000000E+00
  0.00000000E+00  0.00000000E+00  0.00000000E+00
  0.00000000E+00  0.00000000E+00  0.00000000E+00
  0.00000000E+00  0.00000000E+00  0.00000000E+00
  0.00000000E+00  0.00000000E+00  0.00000000E+00
  0.00000000E+00  0.00000000E+00  0.00000000E+00
  0.00000000E+00  0.00000000E+00  0.00000000E+00
  0.00000000E+00  0.00000000E+00  0.00000000E+00
  0.00000000E+00  0.00000000E+00  0.00000000E+00
  0.00000000E+00  0.00000000E+00  0.00000000E+00
  0.00000000E+00  0.00000000E+00  0.00000000E+00
  0.00000000E+00  0.00000000E+00  0.00000000E+00
  0.00000000E+00  0.00000000E+00  0.00000000E+00
  0.00000000E+00  0.00000000E+00  0.00000000E+00
  0.00000000E+00  0.00000000E+00  0.00000000E+00
  0.00000000E+00  0.00000000E+00  0.00000000E+00
  0.00000000E+00  0.00000000E+00  0.00000000E+00
  0.00000000E+00  0.00000000E+00  0.00000000E+00
  0.00000000E+00  0.00000000E+00  0.00000000E+00
  0.00000000E+00  0.00000000E+00  0.00000000E+00
  0.00000000E+00  0.00000000E+00  0.00000000E+00
  0.00000000E+00  0.00000000E+00  0.00000000E+00
  0.00000000E+00  0.00000000E+00  0.00000000E+00
  0.00000000E+00  0.00000000E+00  0.00000000E+00
  0.00000000E+00  0.00000000E+00  0.00000000E+00
  0.00000000E+00  0.00000000E+00  0.00000000E+00
  0.00000000E+00  0.00000000E+00  0.00000000E+00
  0.00000000E+00  0.00000000E+00  0.00000000E+00
  0.00000000E+00  0.00000000E+00  0.00000000E+00
  0.00000000E+00  0.00000000E+00  0.00000000E+00
  0.00000000E+00  0.00000000E+00  0.00000000E+00
  0.00000000E+00  0.00000000E+00  0.00000000E+00
  0.00000000E+00  0.00000000E+00  0.00000000E+00
  0.00000000E+00  0.00000000E+00  0.00000000E+00
  0.00000000E+00  0.00000000E+00  0.00000000E+00
  0.00000000E+00  0.00000000E+00  0.00000000E+00
  0.00000000E+00  0.00000000E+00  0.00000000E+00
  0.00000000E+00  0.00000000E+00  0.00000000E+00
  0.00000000E+00  0.00000000E+00  0.00000000E+00
  0.00000000E+00  0.00000000E+00  0.00000000E+00
  0.00000000E+00  0.00000000E+00  0.00000000E+00
  0.00000000E+00  0.00000000E+00  0.00000000E+00
  0.00000000E+00  0.00000000E+00  0.00000000E+00
  0.00000000E+00  0.00000000E+00  0.00000000E+00
  0.00000000E+00  0.00000000E+00  0.00000000E+00
