XCrySDen XSF file                       
   1.00000000000000     
     8.7557992935000009    0.0000000000000000    0.0000000000000000
    -4.3755486645000001    7.6221232039000002    0.0000000000000000
     0.0000000000000000    0.0000000000000000   37.2496528624999996
   O    Si   C    Fe   H 
    35    17     4     1     7
Selective dynamics
Direct
  0.9404141141320824  0.1605138352443145  0.1636966473700315   T   T   T
  0.7735497804702318  0.2345202055553304  0.2890325329651340   T   T   T
  0.0589791345039357  0.2010702257089697  0.2809354285905165   T   T   T
  0.8458941098131698  0.4038318367521854  0.1583894737806289   T   T   T
  0.7392991200671737  0.3513502013372609  0.2250228036799471   T   T   T
  0.0720053567464775  0.4087939196369182  0.1130148320960947   T   T   T
  0.6118104613935031  0.4934529008013357  0.1796688589492264   T   T   T
  0.1705163017346149  0.4868475019637378  0.1812964019758175   T   T   T
  0.5097608409236137  0.7259915054496777  0.1721301823480532   T   T   T
  0.0858163068867133  0.5136155254484744  0.2818217869794641   T   T   T
  0.3612475298187791  0.6760368746229202  0.2368256938266852   T   T   T
  0.6206305814508312  0.6218351066084687  0.1148887630162617   T   T   T
  0.8493221613257506  0.8249067621752344  0.1627923684397162   T   T   T
  0.2756873936460072  0.8262273768875018  0.1843042392611194   T   T   T
  0.1237072661426234  0.9407010678346848  0.2679024202497332   T   T   T
  0.3326786898768459  0.8313058182564206  0.2973744062491289   T   T   T
  0.1785334909795616  0.0650867550622374  0.1781703725524335   T   T   T
  0.9137344750052938  0.9925109965343740  0.2243128434844268   T   T   T
  0.2912968377486803  0.9715687644934211  0.1206298807235298   T   T   T
  0.5166499598231069  0.1579688555123748  0.1724666716343381   T   T   T
  0.4601680676743740  0.1250575532074170  0.2608041192263009   T   T   T
  0.3129184675263362  0.0933767945949001  0.3272048535577909   T   T   T
  0.0097170335838759  0.3301709248399617  0.3426903061481150   T   T   T
  0.8519818603517848  0.2834186672415200  0.0551449434329641   F   F   F
  0.0950442539208964  0.1962045167722835  0.0664311962619948   F   F   F
  0.6435243804665305  0.2873233535348021  0.0062649442898532   F   F   F
  0.5340368832223561  0.6406750283833489  0.0487701726162655   F   F   F
  0.7535487030588044  0.5234809111926211  0.0605608865222749   F   F   F
  0.1881938317753793  0.5236841354070023  0.0485992448488659   F   F   F
  0.4050355164736175  0.7543958351470721  0.0000624435349366   F   F   F
  0.8625582792101696  0.8600146999258627  0.0708431568407093   F   F   F
  0.1975223989154387  0.9665013019247226  0.0524192536023804   F   F   F
  0.4132527475511694  0.8496875249518681  0.0695734000412358   F   F   F
  0.9971027802074630  0.9977975685447547  0.0056476767924920   F   F   F
  0.5247863137266933  0.1916698222947204  0.0742682357393178   F   F   F
  0.6758243782770822  0.3497868294048785  0.1838655449404542   T   T   T
  0.6566561389578176  0.2943762004118938  0.2651260351061870   T   T   T
  0.9808371999015079  0.3178873391739782  0.2990214075264651   T   T   T
  0.0086423205330702  0.3652116750602917  0.1544591428806078   T   T   T
  0.3294246516482748  0.6784684098122233  0.1936899370359773   T   T   T
  0.6477091415738749  0.6672484749709902  0.1574347952072760   T   T   T
  0.2988605436188038  0.6498916415817241  0.2787920574069522   T   T   T
  0.9729538729493726  0.0119164857199812  0.1822564391541525   T   T   T
  0.3072725237445929  0.9980704025844073  0.2888801722468542   T   T   T
  0.3168235718380599  0.0057620409787956  0.1637148833129610   T   T   T
  0.9768769328355837  0.0017771554413883  0.2655408530659564   T   T   T
  0.6910891230530325  0.3223176711107172  0.0490122419862331   F   F   F
  0.0486349901715357  0.3525062411252051  0.0710278297026363   F   F   F
  0.6954463677419866  0.6630077820592390  0.0740326899200809   F   F   F
  0.3823500945200209  0.6925494194713409  0.0420185392271293   F   F   F
  0.3572396420070518  0.9956208784603575  0.0791641739826403   F   F   F
  0.0343190646981597  0.0047659948584169  0.0487926426243206   F   F   F
  0.4071221091986866  0.5591651397375238  0.3073270374843048   T   T   T
  0.4848420606388357  0.4703789682734845  0.2924731540274582   T   T   T
  0.6272944631026939  0.4631260188399223  0.2872868068468585   T   T   T
  0.7986575546478499  0.8607878882351602  0.2968892125645015   T   T   T
  0.6774673689349460  0.6724537170954595  0.3142736271655949   T   T   T
  0.3338313341952784  0.5043660177369654  0.3324417038269311   T   T   T
  0.8457888862720181  0.7036117910932408  0.3327803382161991   T   T   T
  0.9819263871787420  0.2213320733581316  0.3545642397971449   T   T   T
  0.3504704473981849  0.0516962182505526  0.3475429845554905   T   T   T
  0.5596981128695120  0.3181124123996497  0.9966964024348286   F   F   F
  0.3225111365496645  0.7871832873194649  0.9905822783424298   F   F   F
  0.8933420371027765  0.0014253246384754  0.9978161175675808   F   F   F
 
  0.00000000E+00  0.00000000E+00  0.00000000E+00
  0.00000000E+00  0.00000000E+00  0.00000000E+00
  0.00000000E+00  0.00000000E+00  0.00000000E+00
  0.00000000E+00  0.00000000E+00  0.00000000E+00
  0.00000000E+00  0.00000000E+00  0.00000000E+00
  0.00000000E+00  0.00000000E+00  0.00000000E+00
  0.00000000E+00  0.00000000E+00  0.00000000E+00
  0.00000000E+00  0.00000000E+00  0.00000000E+00
  0.00000000E+00  0.00000000E+00  0.00000000E+00
  0.00000000E+00  0.00000000E+00  0.00000000E+00
  0.00000000E+00  0.00000000E+00  0.00000000E+00
  0.00000000E+00  0.00000000E+00  0.00000000E+00
  0.00000000E+00  0.00000000E+00  0.00000000E+00
  0.00000000E+00  0.00000000E+00  0.00000000E+00
  0.00000000E+00  0.00000000E+00  0.00000000E+00
  0.00000000E+00  0.00000000E+00  0.00000000E+00
  0.00000000E+00  0.00000000E+00  0.00000000E+00
  0.00000000E+00  0.00000000E+00  0.00000000E+00
  0.00000000E+00  0.00000000E+00  0.00000000E+00
  0.00000000E+00  0.00000000E+00  0.00000000E+00
  0.00000000E+00  0.00000000E+00  0.00000000E+00
  0.00000000E+00  0.00000000E+00  0.00000000E+00
  0.00000000E+00  0.00000000E+00  0.00000000E+00
  0.00000000E+00  0.00000000E+00  0.00000000E+00
  0.00000000E+00  0.00000000E+00  0.00000000E+00
  0.00000000E+00  0.00000000E+00  0.00000000E+00
  0.00000000E+00  0.00000000E+00  0.00000000E+00
  0.00000000E+00  0.00000000E+00  0.00000000E+00
  0.00000000E+00  0.00000000E+00  0.00000000E+00
  0.00000000E+00  0.00000000E+00  0.00000000E+00
  0.00000000E+00  0.00000000E+00  0.00000000E+00
  0.00000000E+00  0.00000000E+00  0.00000000E+00
  0.00000000E+00  0.00000000E+00  0.00000000E+00
  0.00000000E+00  0.00000000E+00  0.00000000E+00
  0.00000000E+00  0.00000000E+00  0.00000000E+00
  0.00000000E+00  0.00000000E+00  0.00000000E+00
  0.00000000E+00  0.00000000E+00  0.00000000E+00
  0.00000000E+00  0.00000000E+00  0.00000000E+00
  0.00000000E+00  0.00000000E+00  0.00000000E+00
  0.00000000E+00  0.00000000E+00  0.00000000E+00
  0.00000000E+00  0.00000000E+00  0.00000000E+00
  0.00000000E+00  0.00000000E+00  0.00000000E+00
  0.00000000E+00  0.00000000E+00  0.00000000E+00
  0.00000000E+00  0.00000000E+00  0.00000000E+00
  0.00000000E+00  0.00000000E+00  0.00000000E+00
  0.00000000E+00  0.00000000E+00  0.00000000E+00
  0.00000000E+00  0.00000000E+00  0.00000000E+00
  0.00000000E+00  0.00000000E+00  0.00000000E+00
  0.00000000E+00  0.00000000E+00  0.00000000E+00
  0.00000000E+00  0.00000000E+00  0.00000000E+00
  0.00000000E+00  0.00000000E+00  0.00000000E+00
  0.00000000E+00  0.00000000E+00  0.00000000E+00
  0.00000000E+00  0.00000000E+00  0.00000000E+00
  0.00000000E+00  0.00000000E+00  0.00000000E+00
  0.00000000E+00  0.00000000E+00  0.00000000E+00
  0.00000000E+00  0.00000000E+00  0.00000000E+00
  0.00000000E+00  0.00000000E+00  0.00000000E+00
  0.00000000E+00  0.00000000E+00  0.00000000E+00
  0.00000000E+00  0.00000000E+00  0.00000000E+00
  0.00000000E+00  0.00000000E+00  0.00000000E+00
  0.00000000E+00  0.00000000E+00  0.00000000E+00
  0.00000000E+00  0.00000000E+00  0.00000000E+00
  0.00000000E+00  0.00000000E+00  0.00000000E+00
  0.00000000E+00  0.00000000E+00  0.00000000E+00
