XCrySDen XSF file                       
   1.00000000000000     
     8.7557992935000009    0.0000000000000000    0.0000000000000000
    -4.3755486645000001    7.6221232039000002    0.0000000000000000
     0.0000000000000000    0.0000000000000000   37.2496528624999996
   O    Si   C    Fe   H 
    35    17     3     1     7
Selective dynamics
Direct
  0.9411967751990076  0.1527296865966806  0.1609918665671324   T   T   T
  0.7668166853765430  0.2476869378334658  0.2924347891558974   T   T   T
  0.0335834434054570  0.1801454183200366  0.2855452897405066   T   T   T
  0.8430331053602020  0.3946383463988192  0.1592654587094559   T   T   T
  0.7299989690450573  0.3370946220311796  0.2256380871290009   T   T   T
  0.0713555602434274  0.4106737998853119  0.1129127674029703   T   T   T
  0.6078150523952482  0.4836407114384721  0.1793693485285519   T   T   T
  0.1675667212757955  0.4771242573004709  0.1816372253625434   T   T   T
  0.5063854839634545  0.7175974384721117  0.1721480642457033   T   T   T
  0.0890799206602930  0.5044460719404588  0.2811290593662978   T   T   T
  0.3594734274061855  0.6754242853290373  0.2364470855009879   T   T   T
  0.6235864325895966  0.6220692873907155  0.1151042195627683   T   T   T
  0.8468628680294793  0.8166328119251619  0.1652530431236426   T   T   T
  0.2692275271082167  0.8157916295196517  0.1829813225601218   T   T   T
  0.1054037487913528  0.9348293701486248  0.2699439779892982   T   T   T
  0.3187404935797518  0.8302939175106854  0.2964791836075910   T   T   T
  0.1763214376906102  0.0581450666749595  0.1790142723724654   T   T   T
  0.9154594762882919  0.0090778389986202  0.2242129506793529   T   T   T
  0.2886635068644295  0.9707280766990882  0.1204021781862229   T   T   T
  0.5132698385577377  0.1477584532396244  0.1727582319020790   T   T   T
  0.4495039734516244  0.1344538224678850  0.2641411343575083   T   T   T
  0.2880419361130199  0.0821686992044679  0.3294875919924776   T   T   T
  0.9998508425250348  0.3303936803422136  0.3448002210115230   T   T   T
  0.8519818603517848  0.2834186672415200  0.0551449434329641   F   F   F
  0.0950442539208964  0.1962045167722835  0.0664311962619948   F   F   F
  0.6435243804665305  0.2873233535348021  0.0062649442898532   F   F   F
  0.5340368832223561  0.6406750283833489  0.0487701726162655   F   F   F
  0.7535487030588044  0.5234809111926211  0.0605608865222749   F   F   F
  0.1881938317753793  0.5236841354070023  0.0485992448488659   F   F   F
  0.4050355164736175  0.7543958351470721  0.0000624435349366   F   F   F
  0.8625582792101696  0.8600146999258627  0.0708431568407093   F   F   F
  0.1975223989154387  0.9665013019247226  0.0524192536023804   F   F   F
  0.4132527475511694  0.8496875249518681  0.0695734000412358   F   F   F
  0.9971027802074630  0.9977975685447547  0.0056476767924920   F   F   F
  0.5247863137266933  0.1916698222947204  0.0742682357393178   F   F   F
  0.6714658419049664  0.3398380995887496  0.1842458998283145   T   T   T
  0.6502191313173694  0.2996535490933217  0.2661576954514263   T   T   T
  0.9737874173903218  0.3157490662526879  0.3009628045417817   T   T   T
  0.0069859418738113  0.3588600211741066  0.1541569664561778   T   T   T
  0.3254713670113626  0.6709054212984050  0.1932825102241904   T   T   T
  0.6464074539086480  0.6606172731990897  0.1579490691805696   T   T   T
  0.2985420070663888  0.6524578194086604  0.2784726278365367   T   T   T
  0.9716489969824149  0.0092671240351502  0.1825561565379406   T   T   T
  0.2915907705909588  0.9974833037714300  0.2902025552696850   T   T   T
  0.3127301202634263  0.9987230181687168  0.1636155156112816   T   T   T
  0.9485044595828152  0.9858420164573179  0.2664466688272706   T   T   T
  0.6910891230530325  0.3223176711107172  0.0490122419862331   F   F   F
  0.0486349901715357  0.3525062411252051  0.0710278297026363   F   F   F
  0.6954463677419866  0.6630077820592390  0.0740326899200809   F   F   F
  0.3823500945200209  0.6925494194713409  0.0420185392271293   F   F   F
  0.3572396420070518  0.9956208784603575  0.0791641739826403   F   F   F
  0.0343190646981597  0.0047659948584169  0.0487926426243206   F   F   F
  0.4367271053952502  0.6003824036955482  0.3073969027436483   T   T   T
  0.5171880826843274  0.5094195935979084  0.2963588942293855   T   T   T
  0.6428399595978843  0.4887770635843847  0.2837141911309398   T   T   T
  0.7268622048322133  0.7410357381030708  0.2948639458625160   T   T   T
  0.0678936425773079  0.2792049179674697  0.3538482063197958   T   T   T
  0.3726161542757406  0.0865228465024719  0.3467964069212336   T   T   T
  0.4110587707433633  0.6016703863888067  0.3361760854053475   T   T   T
  0.7398939474118751  0.9231948876242884  0.2883412386351890   T   T   T
  0.5596981128695120  0.3181124123996497  0.9966964024348286   F   F   F
  0.3225111365496645  0.7871832873194649  0.9905822783424298   F   F   F
  0.8933420371027765  0.0014253246384754  0.9978161175675808   F   F   F
 
  0.00000000E+00  0.00000000E+00  0.00000000E+00
  0.00000000E+00  0.00000000E+00  0.00000000E+00
  0.00000000E+00  0.00000000E+00  0.00000000E+00
  0.00000000E+00  0.00000000E+00  0.00000000E+00
  0.00000000E+00  0.00000000E+00  0.00000000E+00
  0.00000000E+00  0.00000000E+00  0.00000000E+00
  0.00000000E+00  0.00000000E+00  0.00000000E+00
  0.00000000E+00  0.00000000E+00  0.00000000E+00
  0.00000000E+00  0.00000000E+00  0.00000000E+00
  0.00000000E+00  0.00000000E+00  0.00000000E+00
  0.00000000E+00  0.00000000E+00  0.00000000E+00
  0.00000000E+00  0.00000000E+00  0.00000000E+00
  0.00000000E+00  0.00000000E+00  0.00000000E+00
  0.00000000E+00  0.00000000E+00  0.00000000E+00
  0.00000000E+00  0.00000000E+00  0.00000000E+00
  0.00000000E+00  0.00000000E+00  0.00000000E+00
  0.00000000E+00  0.00000000E+00  0.00000000E+00
  0.00000000E+00  0.00000000E+00  0.00000000E+00
  0.00000000E+00  0.00000000E+00  0.00000000E+00
  0.00000000E+00  0.00000000E+00  0.00000000E+00
  0.00000000E+00  0.00000000E+00  0.00000000E+00
  0.00000000E+00  0.00000000E+00  0.00000000E+00
  0.00000000E+00  0.00000000E+00  0.00000000E+00
  0.00000000E+00  0.00000000E+00  0.00000000E+00
  0.00000000E+00  0.00000000E+00  0.00000000E+00
  0.00000000E+00  0.00000000E+00  0.00000000E+00
  0.00000000E+00  0.00000000E+00  0.00000000E+00
  0.00000000E+00  0.00000000E+00  0.00000000E+00
  0.00000000E+00  0.00000000E+00  0.00000000E+00
  0.00000000E+00  0.00000000E+00  0.00000000E+00
  0.00000000E+00  0.00000000E+00  0.00000000E+00
  0.00000000E+00  0.00000000E+00  0.00000000E+00
  0.00000000E+00  0.00000000E+00  0.00000000E+00
  0.00000000E+00  0.00000000E+00  0.00000000E+00
  0.00000000E+00  0.00000000E+00  0.00000000E+00
  0.00000000E+00  0.00000000E+00  0.00000000E+00
  0.00000000E+00  0.00000000E+00  0.00000000E+00
  0.00000000E+00  0.00000000E+00  0.00000000E+00
  0.00000000E+00  0.00000000E+00  0.00000000E+00
  0.00000000E+00  0.00000000E+00  0.00000000E+00
  0.00000000E+00  0.00000000E+00  0.00000000E+00
  0.00000000E+00  0.00000000E+00  0.00000000E+00
  0.00000000E+00  0.00000000E+00  0.00000000E+00
  0.00000000E+00  0.00000000E+00  0.00000000E+00
  0.00000000E+00  0.00000000E+00  0.00000000E+00
  0.00000000E+00  0.00000000E+00  0.00000000E+00
  0.00000000E+00  0.00000000E+00  0.00000000E+00
  0.00000000E+00  0.00000000E+00  0.00000000E+00
  0.00000000E+00  0.00000000E+00  0.00000000E+00
  0.00000000E+00  0.00000000E+00  0.00000000E+00
  0.00000000E+00  0.00000000E+00  0.00000000E+00
  0.00000000E+00  0.00000000E+00  0.00000000E+00
  0.00000000E+00  0.00000000E+00  0.00000000E+00
  0.00000000E+00  0.00000000E+00  0.00000000E+00
  0.00000000E+00  0.00000000E+00  0.00000000E+00
  0.00000000E+00  0.00000000E+00  0.00000000E+00
  0.00000000E+00  0.00000000E+00  0.00000000E+00
  0.00000000E+00  0.00000000E+00  0.00000000E+00
  0.00000000E+00  0.00000000E+00  0.00000000E+00
  0.00000000E+00  0.00000000E+00  0.00000000E+00
  0.00000000E+00  0.00000000E+00  0.00000000E+00
  0.00000000E+00  0.00000000E+00  0.00000000E+00
  0.00000000E+00  0.00000000E+00  0.00000000E+00
