XCrySDen XSF file                       
   1.00000000000000     
     8.7557992935000009    0.0000000000000000    0.0000000000000000
    -4.3755486645000001    7.6221232039000002    0.0000000000000000
     0.0000000000000000    0.0000000000000000   37.2496528624999996
   O    Si   C    Fe   H 
    35    17     4     1     7
Selective dynamics
Direct
  0.9424663053479350  0.1477901526356532  0.1595397316266523   T   T   T
  0.7747937200899482  0.2659477883678498  0.2933935936103970   T   T   T
  0.0395603317581494  0.2020529567350579  0.2802576424768602   T   T   T
  0.8412761606189548  0.3876659976923099  0.1609627918290892   T   T   T
  0.7268709091300317  0.3477166888957212  0.2273488044157180   T   T   T
  0.0679515475163480  0.4107698407208607  0.1128960973355713   T   T   T
  0.6041722125446629  0.4787537922737433  0.1785322999886881   T   T   T
  0.1676769278314862  0.4716487470015781  0.1813361305111817   T   T   T
  0.5070741158774511  0.7155574614289840  0.1724363408985842   T   T   T
  0.0989562939460002  0.5263742139855485  0.2865177471988502   T   T   T
  0.3563278538089599  0.6630437640144822  0.2365266763551602   T   T   T
  0.6211291879211974  0.6206316569686500  0.1148529885835901   T   T   T
  0.8471361266070661  0.8115202498945017  0.1647155487825539   T   T   T
  0.2680385659048207  0.8102786427423116  0.1832852494823094   T   T   T
  0.1154562019303538  0.9501695578153913  0.2667485929165779   T   T   T
  0.3422012593042169  0.8578995767553848  0.2908408269762626   T   T   T
  0.1755925990148011  0.0535059469354555  0.1789932709350678   T   T   T
  0.9106947676244064  0.0042232174325195  0.2231761180026071   T   T   T
  0.2937567698866579  0.9716668412080134  0.1208357028383545   T   T   T
  0.5122628986674794  0.1420478644719624  0.1753773531781891   T   T   T
  0.4523248909797608  0.1788653660279705  0.2708945280415356   T   T   T
  0.2732182702585846  0.0676944237204520  0.3318499075847117   T   T   T
  0.0150259832822914  0.3300372942637002  0.3447899394228343   T   T   T
  0.8519818603517848  0.2834186672415200  0.0551449434329641   F   F   F
  0.0950442539208964  0.1962045167722835  0.0664311962619948   F   F   F
  0.6435243804665305  0.2873233535348021  0.0062649442898532   F   F   F
  0.5340368832223561  0.6406750283833489  0.0487701726162655   F   F   F
  0.7535487030588044  0.5234809111926211  0.0605608865222749   F   F   F
  0.1881938317753793  0.5236841354070023  0.0485992448488659   F   F   F
  0.4050355164736175  0.7543958351470721  0.0000624435349366   F   F   F
  0.8625582792101696  0.8600146999258627  0.0708431568407093   F   F   F
  0.1975223989154387  0.9665013019247226  0.0524192536023804   F   F   F
  0.4132527475511694  0.8496875249518681  0.0695734000412358   F   F   F
  0.9971027802074630  0.9977975685447547  0.0056476767924920   F   F   F
  0.5247863137266933  0.1916698222947204  0.0742682357393178   F   F   F
  0.6691588926809581  0.3374186375696702  0.1853462863623989   T   T   T
  0.6585234194031091  0.3220708361064896  0.2686185833124201   T   T   T
  0.9811315697266548  0.3260834019022532  0.3015462307331169   T   T   T
  0.0055730055355174  0.3539792109830761  0.1540948304466737   T   T   T
  0.3245585915903156  0.6651218350466135  0.1932610220584177   T   T   T
  0.6456826791480261  0.6578334806555797  0.1576540234094527   T   T   T
  0.3058667020337798  0.6666974942351749  0.2785581011456111   T   T   T
  0.9707938085350430  0.0049416226304105  0.1820499619548750   T   T   T
  0.2910492478227020  0.0120293246918971  0.2908401711964034   T   T   T
  0.3131391140622132  0.9948215256081502  0.1642183924988438   T   T   T
  0.9541903102646508  0.9972016264621844  0.2660029714849929   T   T   T
  0.6910891230530325  0.3223176711107172  0.0490122419862331   F   F   F
  0.0486349901715357  0.3525062411252051  0.0710278297026363   F   F   F
  0.6954463677419866  0.6630077820592390  0.0740326899200809   F   F   F
  0.3823500945200209  0.6925494194713409  0.0420185392271293   F   F   F
  0.3572396420070518  0.9956208784603575  0.0791641739826403   F   F   F
  0.0343190646981597  0.0047659948584169  0.0487926426243206   F   F   F
  0.4492374141194105  0.6233266829931615  0.3091608652011487   T   T   T
  0.5377953236113003  0.5391503480423332  0.2992718779563602   T   T   T
  0.6673088076839782  0.5252400903125137  0.2855568626819635   T   T   T
  0.8342428299877152  0.8889321317457753  0.3315983762866158   T   T   T
  0.7221083401598913  0.7863270705254289  0.2979474619503403   T   T   T
  0.9696841771768515  0.2163339847287055  0.3562355136032782   T   T   T
  0.1558753355324872  0.0082780023565446  0.3423357167548732   T   T   T
  0.4159143373931489  0.6206192070640827  0.3376029301249388   T   T   T
  0.8060801395495144  0.6598649899966610  0.2817959246086915   T   T   T
  0.5596981128695120  0.3181124123996497  0.9966964024348286   F   F   F
  0.3225111365496645  0.7871832873194649  0.9905822783424298   F   F   F
  0.8933420371027765  0.0014253246384754  0.9978161175675808   F   F   F
 
  0.00000000E+00  0.00000000E+00  0.00000000E+00
  0.00000000E+00  0.00000000E+00  0.00000000E+00
  0.00000000E+00  0.00000000E+00  0.00000000E+00
  0.00000000E+00  0.00000000E+00  0.00000000E+00
  0.00000000E+00  0.00000000E+00  0.00000000E+00
  0.00000000E+00  0.00000000E+00  0.00000000E+00
  0.00000000E+00  0.00000000E+00  0.00000000E+00
  0.00000000E+00  0.00000000E+00  0.00000000E+00
  0.00000000E+00  0.00000000E+00  0.00000000E+00
  0.00000000E+00  0.00000000E+00  0.00000000E+00
  0.00000000E+00  0.00000000E+00  0.00000000E+00
  0.00000000E+00  0.00000000E+00  0.00000000E+00
  0.00000000E+00  0.00000000E+00  0.00000000E+00
  0.00000000E+00  0.00000000E+00  0.00000000E+00
  0.00000000E+00  0.00000000E+00  0.00000000E+00
  0.00000000E+00  0.00000000E+00  0.00000000E+00
  0.00000000E+00  0.00000000E+00  0.00000000E+00
  0.00000000E+00  0.00000000E+00  0.00000000E+00
  0.00000000E+00  0.00000000E+00  0.00000000E+00
  0.00000000E+00  0.00000000E+00  0.00000000E+00
  0.00000000E+00  0.00000000E+00  0.00000000E+00
  0.00000000E+00  0.00000000E+00  0.00000000E+00
  0.00000000E+00  0.00000000E+00  0.00000000E+00
  0.00000000E+00  0.00000000E+00  0.00000000E+00
  0.00000000E+00  0.00000000E+00  0.00000000E+00
  0.00000000E+00  0.00000000E+00  0.00000000E+00
  0.00000000E+00  0.00000000E+00  0.00000000E+00
  0.00000000E+00  0.00000000E+00  0.00000000E+00
  0.00000000E+00  0.00000000E+00  0.00000000E+00
  0.00000000E+00  0.00000000E+00  0.00000000E+00
  0.00000000E+00  0.00000000E+00  0.00000000E+00
  0.00000000E+00  0.00000000E+00  0.00000000E+00
  0.00000000E+00  0.00000000E+00  0.00000000E+00
  0.00000000E+00  0.00000000E+00  0.00000000E+00
  0.00000000E+00  0.00000000E+00  0.00000000E+00
  0.00000000E+00  0.00000000E+00  0.00000000E+00
  0.00000000E+00  0.00000000E+00  0.00000000E+00
  0.00000000E+00  0.00000000E+00  0.00000000E+00
  0.00000000E+00  0.00000000E+00  0.00000000E+00
  0.00000000E+00  0.00000000E+00  0.00000000E+00
  0.00000000E+00  0.00000000E+00  0.00000000E+00
  0.00000000E+00  0.00000000E+00  0.00000000E+00
  0.00000000E+00  0.00000000E+00  0.00000000E+00
  0.00000000E+00  0.00000000E+00  0.00000000E+00
  0.00000000E+00  0.00000000E+00  0.00000000E+00
  0.00000000E+00  0.00000000E+00  0.00000000E+00
  0.00000000E+00  0.00000000E+00  0.00000000E+00
  0.00000000E+00  0.00000000E+00  0.00000000E+00
  0.00000000E+00  0.00000000E+00  0.00000000E+00
  0.00000000E+00  0.00000000E+00  0.00000000E+00
  0.00000000E+00  0.00000000E+00  0.00000000E+00
  0.00000000E+00  0.00000000E+00  0.00000000E+00
  0.00000000E+00  0.00000000E+00  0.00000000E+00
  0.00000000E+00  0.00000000E+00  0.00000000E+00
  0.00000000E+00  0.00000000E+00  0.00000000E+00
  0.00000000E+00  0.00000000E+00  0.00000000E+00
  0.00000000E+00  0.00000000E+00  0.00000000E+00
  0.00000000E+00  0.00000000E+00  0.00000000E+00
  0.00000000E+00  0.00000000E+00  0.00000000E+00
  0.00000000E+00  0.00000000E+00  0.00000000E+00
  0.00000000E+00  0.00000000E+00  0.00000000E+00
  0.00000000E+00  0.00000000E+00  0.00000000E+00
  0.00000000E+00  0.00000000E+00  0.00000000E+00
  0.00000000E+00  0.00000000E+00  0.00000000E+00
