XCrySDen XSF file                       
   1.00000000000000     
     8.7557992935000009    0.0000000000000000    0.0000000000000000
    -4.3755486645000001    7.6221232039000002    0.0000000000000000
     0.0000000000000000    0.0000000000000000   37.2496528624999996
   O    Si   C    Fe   H 
    35    17     4     1     9
Selective dynamics
Direct
  0.9274391965335723  0.1475367875295779  0.1632506361359783   T   T   T
  0.7648140559210739  0.2730226574203154  0.2928137075706153   T   T   T
  0.0320090086304458  0.2081948400055713  0.2835211349739402   T   T   T
  0.8285667157920437  0.3873113070171053  0.1570718175719932   T   T   T
  0.7423903447744958  0.3648287470356963  0.2247378546068805   T   T   T
  0.0662210909979264  0.4037086079297712  0.1131958927167217   T   T   T
  0.5929926649592362  0.4784620066967128  0.1781481412205058   T   T   T
  0.1526123789470793  0.4735665347644861  0.1813414994844973   T   T   T
  0.4923741546515173  0.7133569908642805  0.1700966277557501   T   T   T
  0.0828249077860359  0.5355064943089496  0.2834849548827371   T   T   T
  0.3489883982385951  0.6616536388846594  0.2348801023864523   T   T   T
  0.6248327704708047  0.6250949988919128  0.1150062900539277   T   T   T
  0.8350517679917191  0.8135642783295169  0.1679473858583675   T   T   T
  0.2586623889353487  0.8132676937248512  0.1832389169914320   T   T   T
  0.1315627013775083  0.9665262531850884  0.2714186616365302   T   T   T
  0.3583293465625919  0.8602611872041871  0.2896113717131963   T   T   T
  0.1677209684862795  0.0566702852680038  0.1782334317138378   T   T   T
  0.9193318927226289  0.0072655779634037  0.2270566423548655   T   T   T
  0.2930652574832451  0.9744785493068514  0.1207698422023078   T   T   T
  0.5053687594365263  0.1445602455246183  0.1762707182103563   T   T   T
  0.4617836767285038  0.1809707956793336  0.2633784140699413   T   T   T
  0.3284009250754745  0.0936852156480030  0.3304601432099504   T   T   T
  0.0020631000054273  0.3512932541072091  0.3447888979545948   T   T   T
  0.8519818603517848  0.2834186672415200  0.0551449434329641   F   F   F
  0.0950442539208964  0.1962045167722835  0.0664311962619948   F   F   F
  0.6435243804665305  0.2873233535348021  0.0062649442898532   F   F   F
  0.5340368832223561  0.6406750283833489  0.0487701726162655   F   F   F
  0.7535487030588044  0.5234809111926211  0.0605608865222749   F   F   F
  0.1881938317753793  0.5236841354070023  0.0485992448488659   F   F   F
  0.4050355164736175  0.7543958351470721  0.0000624435349366   F   F   F
  0.8625582792101696  0.8600146999258627  0.0708431568407093   F   F   F
  0.1975223989154387  0.9665013019247226  0.0524192536023804   F   F   F
  0.4132527475511694  0.8496875249518681  0.0695734000412358   F   F   F
  0.9971027802074630  0.9977975685447547  0.0056476767924920   F   F   F
  0.5247863137266933  0.1916698222947204  0.0742682357393178   F   F   F
  0.6650091299363486  0.3419376607251635  0.1839289388007994   T   T   T
  0.6646260600288950  0.3401154107945430  0.2653217490051991   T   T   T
  0.9709922648044128  0.3389718533694541  0.3010779289023346   T   T   T
  0.9939153857177101  0.3517899731492217  0.1539906181583898   T   T   T
  0.3136247377412237  0.6660209998677855  0.1920419146930199   T   T   T
  0.6376976825172719  0.6598208527394427  0.1578857824425294   T   T   T
  0.2952830670056457  0.6605295183328220  0.2766251072393097   T   T   T
  0.9639931393258293  0.0069573984335022  0.1847210771499688   T   T   T
  0.3209358104328635  0.0244182786753431  0.2889425453308304   T   T   T
  0.3071751917602037  0.9986794196149074  0.1642111241689561   T   T   T
  0.9644168036892563  0.0047226459373364  0.2699715684272617   T   T   T
  0.6910891230530325  0.3223176711107172  0.0490122419862331   F   F   F
  0.0486349901715357  0.3525062411252051  0.0710278297026363   F   F   F
  0.6954463677419866  0.6630077820592390  0.0740326899200809   F   F   F
  0.3823500945200209  0.6925494194713409  0.0420185392271293   F   F   F
  0.3572396420070518  0.9956208784603575  0.0791641739826403   F   F   F
  0.0343190646981597  0.0047659948584169  0.0487926426243206   F   F   F
  0.3973417779995524  0.5636306505661793  0.3065916111487380   T   T   T
  0.5691374032757390  0.5918081633655142  0.2960770102485524   T   T   T
  0.6732749649843259  0.5376971445827583  0.2833404602727636   T   T   T
  0.9039389489069671  0.8944030005394737  0.3407641574890869   T   T   T
  0.7943254031785537  0.7648944826092203  0.3034674386668019   T   T   T
  0.0239014381032691  0.2622794881005938  0.3548273261885369   T   T   T
  0.4361655503330353  0.1262515438847963  0.3434687851806571   T   T   T
  0.4022680521021254  0.6187144933902922  0.3333925126410895   T   T   T
  0.0317898873339591  0.9254052578416602  0.3521856405155001   T   T   T
  0.3060493067833479  0.4212700734628040  0.3081058229549197   T   T   T
  0.8295396046003491  0.9397716941243229  0.3573283866390465   T   T   T
  0.5596981128695120  0.3181124123996497  0.9966964024348286   F   F   F
  0.3225111365496645  0.7871832873194649  0.9905822783424298   F   F   F
  0.8933420371027765  0.0014253246384754  0.9978161175675808   F   F   F
 
  0.00000000E+00  0.00000000E+00  0.00000000E+00
  0.00000000E+00  0.00000000E+00  0.00000000E+00
  0.00000000E+00  0.00000000E+00  0.00000000E+00
  0.00000000E+00  0.00000000E+00  0.00000000E+00
  0.00000000E+00  0.00000000E+00  0.00000000E+00
  0.00000000E+00  0.00000000E+00  0.00000000E+00
  0.00000000E+00  0.00000000E+00  0.00000000E+00
  0.00000000E+00  0.00000000E+00  0.00000000E+00
  0.00000000E+00  0.00000000E+00  0.00000000E+00
  0.00000000E+00  0.00000000E+00  0.00000000E+00
  0.00000000E+00  0.00000000E+00  0.00000000E+00
  0.00000000E+00  0.00000000E+00  0.00000000E+00
  0.00000000E+00  0.00000000E+00  0.00000000E+00
  0.00000000E+00  0.00000000E+00  0.00000000E+00
  0.00000000E+00  0.00000000E+00  0.00000000E+00
  0.00000000E+00  0.00000000E+00  0.00000000E+00
  0.00000000E+00  0.00000000E+00  0.00000000E+00
  0.00000000E+00  0.00000000E+00  0.00000000E+00
  0.00000000E+00  0.00000000E+00  0.00000000E+00
  0.00000000E+00  0.00000000E+00  0.00000000E+00
  0.00000000E+00  0.00000000E+00  0.00000000E+00
  0.00000000E+00  0.00000000E+00  0.00000000E+00
  0.00000000E+00  0.00000000E+00  0.00000000E+00
  0.00000000E+00  0.00000000E+00  0.00000000E+00
  0.00000000E+00  0.00000000E+00  0.00000000E+00
  0.00000000E+00  0.00000000E+00  0.00000000E+00
  0.00000000E+00  0.00000000E+00  0.00000000E+00
  0.00000000E+00  0.00000000E+00  0.00000000E+00
  0.00000000E+00  0.00000000E+00  0.00000000E+00
  0.00000000E+00  0.00000000E+00  0.00000000E+00
  0.00000000E+00  0.00000000E+00  0.00000000E+00
  0.00000000E+00  0.00000000E+00  0.00000000E+00
  0.00000000E+00  0.00000000E+00  0.00000000E+00
  0.00000000E+00  0.00000000E+00  0.00000000E+00
  0.00000000E+00  0.00000000E+00  0.00000000E+00
  0.00000000E+00  0.00000000E+00  0.00000000E+00
  0.00000000E+00  0.00000000E+00  0.00000000E+00
  0.00000000E+00  0.00000000E+00  0.00000000E+00
  0.00000000E+00  0.00000000E+00  0.00000000E+00
  0.00000000E+00  0.00000000E+00  0.00000000E+00
  0.00000000E+00  0.00000000E+00  0.00000000E+00
  0.00000000E+00  0.00000000E+00  0.00000000E+00
  0.00000000E+00  0.00000000E+00  0.00000000E+00
  0.00000000E+00  0.00000000E+00  0.00000000E+00
  0.00000000E+00  0.00000000E+00  0.00000000E+00
  0.00000000E+00  0.00000000E+00  0.00000000E+00
  0.00000000E+00  0.00000000E+00  0.00000000E+00
  0.00000000E+00  0.00000000E+00  0.00000000E+00
  0.00000000E+00  0.00000000E+00  0.00000000E+00
  0.00000000E+00  0.00000000E+00  0.00000000E+00
  0.00000000E+00  0.00000000E+00  0.00000000E+00
  0.00000000E+00  0.00000000E+00  0.00000000E+00
  0.00000000E+00  0.00000000E+00  0.00000000E+00
  0.00000000E+00  0.00000000E+00  0.00000000E+00
  0.00000000E+00  0.00000000E+00  0.00000000E+00
  0.00000000E+00  0.00000000E+00  0.00000000E+00
  0.00000000E+00  0.00000000E+00  0.00000000E+00
  0.00000000E+00  0.00000000E+00  0.00000000E+00
  0.00000000E+00  0.00000000E+00  0.00000000E+00
  0.00000000E+00  0.00000000E+00  0.00000000E+00
  0.00000000E+00  0.00000000E+00  0.00000000E+00
  0.00000000E+00  0.00000000E+00  0.00000000E+00
  0.00000000E+00  0.00000000E+00  0.00000000E+00
  0.00000000E+00  0.00000000E+00  0.00000000E+00
  0.00000000E+00  0.00000000E+00  0.00000000E+00
  0.00000000E+00  0.00000000E+00  0.00000000E+00
