XCrySDen XSF file                       
   1.00000000000000     
     8.7557991760000000    0.0014347150000000    0.0000000000000000
    -4.3767975578999998    7.6214061294000004    0.0000000000000000
     0.0000000000000000    0.0000000000000000   37.2496528624999996
   O    Si   C    Fe   H 
    35    17     3     1     7
Selective dynamics
Direct
  0.9403174128867541  0.1501931383864864  0.1578521778212725   T   T   T
  0.8322342659530161  0.3345573334786719  0.2966455291811625   T   T   T
  0.0821536081084875  0.2727245851700897  0.2698010781006128   T   T   T
  0.8455837308818047  0.3919900485046267  0.1682154421786953   T   T   T
  0.6907121356629577  0.3399417330584805  0.2332814382094409   T   T   T
  0.0535319957186913  0.4120529844139896  0.1127239886196598   T   T   T
  0.6065628758223842  0.4864436195311836  0.1804110126547755   T   T   T
  0.1754569950225532  0.4754247987472511  0.1793430618196884   T   T   T
  0.5101967160785454  0.7244378508156052  0.1680357033306537   T   T   T
  0.1619076291753210  0.5924302430074798  0.2897014769481742   T   T   T
  0.3778878046101661  0.6605449889306924  0.2330323817261281   T   T   T
  0.6258766038017912  0.6148842998280565  0.1148893821861103   T   T   T
  0.8493000340993984  0.8151652661338876  0.1646509620992460   T   T   T
  0.2712540750461316  0.8144544925397419  0.1838750333044292   T   T   T
  0.2183350137408086  0.0752865504223460  0.2532201494491856   T   T   T
  0.4005796354712267  0.9168113537432464  0.2736248466089986   T   T   T
  0.1770868788484950  0.0592084975860824  0.1762112794218794   T   T   T
  0.9229930435077095  0.0190291728064348  0.2221538858234138   T   T   T
  0.2997882864726775  0.9714902163790400  0.1210210793789801   T   T   T
  0.5133624935143674  0.1480757670349660  0.1765690037260250   T   T   T
  0.5013849412588391  0.2399497887130978  0.2951128314938292   T   T   T
  0.1995619321728840 -0.0348296004706550  0.3207031737414473   T   T   T
  0.0792796525882621  0.3353037944788068  0.3388222913625709   T   T   T
  0.8519026110539869  0.2830175096409135  0.0551449455000963   F   F   F
  0.0951290435065033  0.1962061850667070  0.0664311973895266   F   F   F
  0.6435061787157181  0.2870410102154253  0.0062649441824689   F   F   F
  0.5342506074501685  0.6405541726310915  0.0487701749518550   F   F   F
  0.7536336604275746  0.5232028810499827  0.0605608868175764   F   F   F
  0.1884386361857082  0.5237255796688274  0.0485992416273646   F   F   F
  0.4053503677883512  0.7543799104697726  0.0000624435349366   F   F   F
  0.8628039680073414  0.8597700565214126  0.0708431599011377   F   F   F
  0.1980165186977203  0.9666623684948590  0.0524192516963211   F   F   F
  0.4136195033118710  0.8496938729704837  0.0695734043097360   F   F   F
  0.9973890368734430  0.9975159917261394  0.0056476771414893   F   F   F
  0.5247471517372873  0.1914274175841584  0.0742682395245922   F   F   F
  0.6643505051532151  0.3412483807810974  0.1897523082838830   T   T   T
  0.6926858556144952  0.3783389634336073  0.2763431499604257   T   T   T
  0.0365849293698740  0.3824711687795043  0.2982685746869413   T   T   T
  0.0026366197349989  0.3572672591545970  0.1546345380599549   T   T   T
  0.3321118203465472  0.6693516106257104  0.1908047059272986   T   T   T
  0.6491426366700762  0.6602738782664004  0.1573369686159559   T   T   T
  0.3625497370192616  0.7148692922153781  0.2738332205867326   T   T   T
  0.9735810903700994  0.0111443158261852  0.1805254569633879   T   T   T
  0.3343439474516396  0.0523932220329600  0.2840786828781676   T   T   T
  0.3167753673819322  0.9988663213463597  0.1643033139851061   T   T   T
  0.0212359358281437  0.0629660837912950  0.2615347693150840   T   T   T
  0.6910774899720735  0.3220183426711571  0.0490122440533654   F   F   F
  0.0488218116457233  0.3525782048129003  0.0710278288167245   F   F   F
  0.6956272550192253  0.6628021150869188  0.0740326861616509   F   F   F
  0.3826361464664956  0.6925288770002425  0.0420185394955936   F   F   F
  0.3577052593291512  0.9957001309194737  0.0791641802645557   F   F   F
  0.0343120899416434  0.0047479597412305  0.0487926409061856   F   F   F
  0.5157531542702584  0.6986564017032809  0.3073761893459778   T   T   T
  0.7446732128942538  0.6000769117008797  0.2870709901107559   T   T   T
  0.6781066415145689  0.6973664277181701  0.2974929829386281   T   T   T
  0.9223068956607110  0.8298646804959905  0.3027240331005979   T   T   T
  0.0308597720650009  0.3690800213691222  0.3586045757861998   T   T   T
  0.2116019273720046  0.0544397946222281  0.3377478515117627   T   T   T
  0.4314426037896965  0.5752338186405377  0.3219680431893063   T   T   T
  0.5452453844117392  0.8057446523832759  0.3264320322963219   T   T   T
  0.5597210857188841  0.3178860933932910  0.9966963901662567   F   F   F
  0.3228679203900313  0.7872232214258759  0.9905822695638307   F   F   F
  0.8930906914664405  0.0009212644617307  0.9978161294603112   F   F   F
 
  0.00000000E+00  0.00000000E+00  0.00000000E+00
  0.00000000E+00  0.00000000E+00  0.00000000E+00
  0.00000000E+00  0.00000000E+00  0.00000000E+00
  0.00000000E+00  0.00000000E+00  0.00000000E+00
  0.00000000E+00  0.00000000E+00  0.00000000E+00
  0.00000000E+00  0.00000000E+00  0.00000000E+00
  0.00000000E+00  0.00000000E+00  0.00000000E+00
  0.00000000E+00  0.00000000E+00  0.00000000E+00
  0.00000000E+00  0.00000000E+00  0.00000000E+00
  0.00000000E+00  0.00000000E+00  0.00000000E+00
  0.00000000E+00  0.00000000E+00  0.00000000E+00
  0.00000000E+00  0.00000000E+00  0.00000000E+00
  0.00000000E+00  0.00000000E+00  0.00000000E+00
  0.00000000E+00  0.00000000E+00  0.00000000E+00
  0.00000000E+00  0.00000000E+00  0.00000000E+00
  0.00000000E+00  0.00000000E+00  0.00000000E+00
  0.00000000E+00  0.00000000E+00  0.00000000E+00
  0.00000000E+00  0.00000000E+00  0.00000000E+00
  0.00000000E+00  0.00000000E+00  0.00000000E+00
  0.00000000E+00  0.00000000E+00  0.00000000E+00
  0.00000000E+00  0.00000000E+00  0.00000000E+00
  0.00000000E+00  0.00000000E+00  0.00000000E+00
  0.00000000E+00  0.00000000E+00  0.00000000E+00
  0.00000000E+00  0.00000000E+00  0.00000000E+00
  0.00000000E+00  0.00000000E+00  0.00000000E+00
  0.00000000E+00  0.00000000E+00  0.00000000E+00
  0.00000000E+00  0.00000000E+00  0.00000000E+00
  0.00000000E+00  0.00000000E+00  0.00000000E+00
  0.00000000E+00  0.00000000E+00  0.00000000E+00
  0.00000000E+00  0.00000000E+00  0.00000000E+00
  0.00000000E+00  0.00000000E+00  0.00000000E+00
  0.00000000E+00  0.00000000E+00  0.00000000E+00
  0.00000000E+00  0.00000000E+00  0.00000000E+00
  0.00000000E+00  0.00000000E+00  0.00000000E+00
  0.00000000E+00  0.00000000E+00  0.00000000E+00
  0.00000000E+00  0.00000000E+00  0.00000000E+00
  0.00000000E+00  0.00000000E+00  0.00000000E+00
  0.00000000E+00  0.00000000E+00  0.00000000E+00
  0.00000000E+00  0.00000000E+00  0.00000000E+00
  0.00000000E+00  0.00000000E+00  0.00000000E+00
  0.00000000E+00  0.00000000E+00  0.00000000E+00
  0.00000000E+00  0.00000000E+00  0.00000000E+00
  0.00000000E+00  0.00000000E+00  0.00000000E+00
  0.00000000E+00  0.00000000E+00  0.00000000E+00
  0.00000000E+00  0.00000000E+00  0.00000000E+00
  0.00000000E+00  0.00000000E+00  0.00000000E+00
  0.00000000E+00  0.00000000E+00  0.00000000E+00
  0.00000000E+00  0.00000000E+00  0.00000000E+00
  0.00000000E+00  0.00000000E+00  0.00000000E+00
  0.00000000E+00  0.00000000E+00  0.00000000E+00
  0.00000000E+00  0.00000000E+00  0.00000000E+00
  0.00000000E+00  0.00000000E+00  0.00000000E+00
  0.00000000E+00  0.00000000E+00  0.00000000E+00
  0.00000000E+00  0.00000000E+00  0.00000000E+00
  0.00000000E+00  0.00000000E+00  0.00000000E+00
  0.00000000E+00  0.00000000E+00  0.00000000E+00
  0.00000000E+00  0.00000000E+00  0.00000000E+00
  0.00000000E+00  0.00000000E+00  0.00000000E+00
  0.00000000E+00  0.00000000E+00  0.00000000E+00
  0.00000000E+00  0.00000000E+00  0.00000000E+00
  0.00000000E+00  0.00000000E+00  0.00000000E+00
  0.00000000E+00  0.00000000E+00  0.00000000E+00
  0.00000000E+00  0.00000000E+00  0.00000000E+00
