XCrySDen XSF file                       
   1.00000000000000     
     8.7557992935000009    0.0000000000000000    0.0000000000000000
    -4.3755486645000001    7.6221232039000002    0.0000000000000000
     0.0000000000000000    0.0000000000000000   37.2496528624999996
   O    Si   C    Fe   H 
    35    17     4     1     9
Selective dynamics
Direct
  0.9365997762428571  0.1551165778805703  0.1639148355647521   T   T   T
  0.7824365782898515  0.2272441573740472  0.2895102454043026   T   T   T
  0.0372771081225682  0.1488141150813947  0.2883805732910973   T   T   T
  0.8430609633290127  0.3989633748448638  0.1594715707112095   T   T   T
  0.7361162143346945  0.3479222581047238  0.2263114489092462   T   T   T
  0.0678322395709209  0.4057818997913104  0.1131591203524191   T   T   T
  0.6098225441656350  0.4898028016951206  0.1801288203794689   T   T   T
  0.1688119680347318  0.4813037982461996  0.1810639737646453   T   T   T
  0.5074479144144063  0.7223423808930564  0.1716153213316287   T   T   T
  0.1114283164424757  0.4818252891833952  0.2837424296841333   T   T   T
  0.3558225872340060  0.6806596917453489  0.2355660137233536   T   T   T
  0.6229876209471731  0.6212241327027350  0.1150769846155058   T   T   T
  0.8482391429515177  0.8210343599035959  0.1642455015913007   T   T   T
  0.2688958388847126  0.8198481065458724  0.1823044393011612   T   T   T
  0.1216132697014744  0.9214510154469746  0.2667255185069357   T   T   T
  0.3261120593536075  0.8189235250047556  0.2979028374185459   T   T   T
  0.1774522235129591  0.0643661785949499  0.1783005139602133   T   T   T
  0.9182974396352646  0.9956622127727460  0.2255637939352544   T   T   T
  0.2919533795134844  0.9753609216928025  0.1204644672891803   T   T   T
  0.5139355695572619  0.1530282773133644  0.1739733468426576   T   T   T
  0.4641549707747192  0.1258363775971024  0.2649501883297608   T   T   T
  0.2913099621302132  0.0695680391416217  0.3287646423772981   T   T   T
  0.9895674622650930  0.3027281936423482  0.3459896122277918   T   T   T
  0.8519818603517848  0.2834186672415200  0.0551449434329641   F   F   F
  0.0950442539208964  0.1962045167722835  0.0664311962619948   F   F   F
  0.6435243804665305  0.2873233535348021  0.0062649442898532   F   F   F
  0.5340368832223561  0.6406750283833489  0.0487701726162655   F   F   F
  0.7535487030588044  0.5234809111926211  0.0605608865222749   F   F   F
  0.1881938317753793  0.5236841354070023  0.0485992448488659   F   F   F
  0.4050355164736175  0.7543958351470721  0.0000624435349366   F   F   F
  0.8625582792101696  0.8600146999258627  0.0708431568407093   F   F   F
  0.1975223989154387  0.9665013019247226  0.0524192536023804   F   F   F
  0.4132527475511694  0.8496875249518681  0.0695734000412358   F   F   F
  0.9971027802074630  0.9977975685447547  0.0056476767924920   F   F   F
  0.5247863137266933  0.1916698222947204  0.0742682357393178   F   F   F
  0.6731503881732829  0.3456842636786339  0.1849123066849452   T   T   T
  0.6644230684378092  0.2902295773553246  0.2670768736536916   T   T   T
  0.9834825800212685  0.2907262913519305  0.3018815498269603   T   T   T
  0.0050204690805912  0.3595771384979872  0.1546401462987670   T   T   T
  0.3256101290780689  0.6755007201908858  0.1924065078670343   T   T   T
  0.6474810602674907  0.6644531896900858  0.1577623050406210   T   T   T
  0.3093273262482135  0.6467769964713287  0.2780916074185576   T   T   T
  0.9716772480988189  0.0096295200880811  0.1834819906617505   T   T   T
  0.3003757944790544  0.9862399183783157  0.2895490357280452   T   T   T
  0.3143156489578437  0.0044998487155445  0.1636419600443975   T   T   T
  0.9517034191421249  0.9563506709943124  0.2672983519235021   T   T   T
  0.6910891230530325  0.3223176711107172  0.0490122419862331   F   F   F
  0.0486349901715357  0.3525062411252051  0.0710278297026363   F   F   F
  0.6954463677419866  0.6630077820592390  0.0740326899200809   F   F   F
  0.3823500945200209  0.6925494194713409  0.0420185392271293   F   F   F
  0.3572396420070518  0.9956208784603575  0.0791641739826403   F   F   F
  0.0343190646981597  0.0047659948584169  0.0487926426243206   F   F   F
  0.4738650540638280  0.6092070557981258  0.2999884546700328   T   T   T
  0.5160912050580297  0.4840577000234501  0.2963112325847266   T   T   T
  0.6584211891727262  0.4674467132466220  0.2918572983292427   T   T   T
  0.8518920318567533  0.7991594926808900  0.3703857776935037   T   T   T
  0.7265588163213429  0.7096621665861061  0.3002229055595428   T   T   T
  0.0753642656524857  0.2783139387985816  0.3569376775302843   T   T   T
  0.3685612288201215  0.0639163775600618  0.3466708767267540   T   T   T
  0.7679076761997148  0.8502515163854575  0.3603200421908097   T   T   T
  0.8233096806983357  0.6753011407790783  0.3571374434444166   T   T   T
  0.8232181550377461  0.7701411494058421  0.3990289141938447   T   T   T
  0.9906065447654714  0.8966539438570301  0.3661902485953223   T   T   T
  0.5596981128695120  0.3181124123996497  0.9966964024348286   F   F   F
  0.3225111365496645  0.7871832873194649  0.9905822783424298   F   F   F
  0.8933420371027765  0.0014253246384754  0.9978161175675808   F   F   F
 
  0.00000000E+00  0.00000000E+00  0.00000000E+00
  0.00000000E+00  0.00000000E+00  0.00000000E+00
  0.00000000E+00  0.00000000E+00  0.00000000E+00
  0.00000000E+00  0.00000000E+00  0.00000000E+00
  0.00000000E+00  0.00000000E+00  0.00000000E+00
  0.00000000E+00  0.00000000E+00  0.00000000E+00
  0.00000000E+00  0.00000000E+00  0.00000000E+00
  0.00000000E+00  0.00000000E+00  0.00000000E+00
  0.00000000E+00  0.00000000E+00  0.00000000E+00
  0.00000000E+00  0.00000000E+00  0.00000000E+00
  0.00000000E+00  0.00000000E+00  0.00000000E+00
  0.00000000E+00  0.00000000E+00  0.00000000E+00
  0.00000000E+00  0.00000000E+00  0.00000000E+00
  0.00000000E+00  0.00000000E+00  0.00000000E+00
  0.00000000E+00  0.00000000E+00  0.00000000E+00
  0.00000000E+00  0.00000000E+00  0.00000000E+00
  0.00000000E+00  0.00000000E+00  0.00000000E+00
  0.00000000E+00  0.00000000E+00  0.00000000E+00
  0.00000000E+00  0.00000000E+00  0.00000000E+00
  0.00000000E+00  0.00000000E+00  0.00000000E+00
  0.00000000E+00  0.00000000E+00  0.00000000E+00
  0.00000000E+00  0.00000000E+00  0.00000000E+00
  0.00000000E+00  0.00000000E+00  0.00000000E+00
  0.00000000E+00  0.00000000E+00  0.00000000E+00
  0.00000000E+00  0.00000000E+00  0.00000000E+00
  0.00000000E+00  0.00000000E+00  0.00000000E+00
  0.00000000E+00  0.00000000E+00  0.00000000E+00
  0.00000000E+00  0.00000000E+00  0.00000000E+00
  0.00000000E+00  0.00000000E+00  0.00000000E+00
  0.00000000E+00  0.00000000E+00  0.00000000E+00
  0.00000000E+00  0.00000000E+00  0.00000000E+00
  0.00000000E+00  0.00000000E+00  0.00000000E+00
  0.00000000E+00  0.00000000E+00  0.00000000E+00
  0.00000000E+00  0.00000000E+00  0.00000000E+00
  0.00000000E+00  0.00000000E+00  0.00000000E+00
  0.00000000E+00  0.00000000E+00  0.00000000E+00
  0.00000000E+00  0.00000000E+00  0.00000000E+00
  0.00000000E+00  0.00000000E+00  0.00000000E+00
  0.00000000E+00  0.00000000E+00  0.00000000E+00
  0.00000000E+00  0.00000000E+00  0.00000000E+00
  0.00000000E+00  0.00000000E+00  0.00000000E+00
  0.00000000E+00  0.00000000E+00  0.00000000E+00
  0.00000000E+00  0.00000000E+00  0.00000000E+00
  0.00000000E+00  0.00000000E+00  0.00000000E+00
  0.00000000E+00  0.00000000E+00  0.00000000E+00
  0.00000000E+00  0.00000000E+00  0.00000000E+00
  0.00000000E+00  0.00000000E+00  0.00000000E+00
  0.00000000E+00  0.00000000E+00  0.00000000E+00
  0.00000000E+00  0.00000000E+00  0.00000000E+00
  0.00000000E+00  0.00000000E+00  0.00000000E+00
  0.00000000E+00  0.00000000E+00  0.00000000E+00
  0.00000000E+00  0.00000000E+00  0.00000000E+00
  0.00000000E+00  0.00000000E+00  0.00000000E+00
  0.00000000E+00  0.00000000E+00  0.00000000E+00
  0.00000000E+00  0.00000000E+00  0.00000000E+00
  0.00000000E+00  0.00000000E+00  0.00000000E+00
  0.00000000E+00  0.00000000E+00  0.00000000E+00
  0.00000000E+00  0.00000000E+00  0.00000000E+00
  0.00000000E+00  0.00000000E+00  0.00000000E+00
  0.00000000E+00  0.00000000E+00  0.00000000E+00
  0.00000000E+00  0.00000000E+00  0.00000000E+00
  0.00000000E+00  0.00000000E+00  0.00000000E+00
  0.00000000E+00  0.00000000E+00  0.00000000E+00
  0.00000000E+00  0.00000000E+00  0.00000000E+00
  0.00000000E+00  0.00000000E+00  0.00000000E+00
  0.00000000E+00  0.00000000E+00  0.00000000E+00
