XCrySDen XSF file                       
   1.00000000000000     
     8.7557992935000009    0.0000000000000000    0.0000000000000000
    -4.3755486645000001    7.6221232039000002    0.0000000000000000
     0.0000000000000000    0.0000000000000000   37.2496528624999996
   O    Si   C    Fe   H 
    35    17     4     1     5
Selective dynamics
Direct
  0.9390652626672568  0.1615104814309060  0.1655734270875441   T   T   T
  0.7872831606523736  0.2206383063202427  0.2883628860573802   T   T   T
  0.0684712784697065  0.1798119612530638  0.2821208309576264   T   T   T
  0.8476983589489050  0.4060194920840657  0.1598869080040751   T   T   T
  0.7399766486083919  0.3545069815944927  0.2267147405605252   T   T   T
  0.0675991740181297  0.4049148173390159  0.1132262412877628   T   T   T
  0.6161894109021825  0.4985886946935414  0.1807002821921321   T   T   T
  0.1747314832132509  0.4887386559448344  0.1806432614296445   T   T   T
  0.5128383308053821  0.7298554226316261  0.1712736087091421   T   T   T
  0.0966138584051033  0.4932966161117852  0.2804093172918493   T   T   T
  0.3631024524485311  0.6853063245886486  0.2355179074285219   T   T   T
  0.6209384933306099  0.6192825803801577  0.1149122363976987   T   T   T
  0.8520466473770617  0.8276799622028512  0.1616968840231100   T   T   T
  0.2752358522807731  0.8273998461369882  0.1829010993831275   T   T   T
  0.1349015764106525  0.9279918749584600  0.2643705321520706   T   T   T
  0.3295821890371494  0.8158296357591864  0.2986038057660589   T   T   T
  0.1800437369237503  0.0688580968468619  0.1781510004701115   T   T   T
  0.9132197510605142 -0.0191168112932689  0.2247535986724229   T   T   T
  0.2937599801068003  0.9769724800399270  0.1206163155313122   T   T   T
  0.5175301620841055  0.1616642261013208  0.1736501273782889   T   T   T
  0.4717479621585808  0.1131327734342196  0.2625514894278040   T   T   T
  0.3028539077222970  0.0762512338363665  0.3266119592929393   T   T   T
  0.0152529559168907  0.3102211895390087  0.3428257463492565   T   T   T
  0.8519818603517848  0.2834186672415200  0.0551449434329641   F   F   F
  0.0950442539208964  0.1962045167722835  0.0664311962619948   F   F   F
  0.6435243804665305  0.2873233535348021  0.0062649442898532   F   F   F
  0.5340368832223561  0.6406750283833489  0.0487701726162655   F   F   F
  0.7535487030588044  0.5234809111926211  0.0605608865222749   F   F   F
  0.1881938317753793  0.5236841354070023  0.0485992448488659   F   F   F
  0.4050355164736175  0.7543958351470721  0.0000624435349366   F   F   F
  0.8625582792101696  0.8600146999258627  0.0708431568407093   F   F   F
  0.1975223989154387  0.9665013019247226  0.0524192536023804   F   F   F
  0.4132527475511694  0.8496875249518681  0.0695734000412358   F   F   F
  0.9971027802074630  0.9977975685447547  0.0056476767924920   F   F   F
  0.5247863137266933  0.1916698222947204  0.0742682357393178   F   F   F
  0.6776096427866656  0.3528914261832657  0.1853323254564649   T   T   T
  0.6665203246161701  0.2838259355091952  0.2669846128875121   T   T   T
  0.9928773051814005  0.3003032427027431  0.2991377187214768   T   T   T
  0.0084595896808184  0.3650754575566898  0.1549869044386872   T   T   T
  0.3316001450640050  0.6821781249910071  0.1924565028567389   T   T   T
  0.6502247870662332  0.6689548727841719  0.1572691847527722   T   T   T
  0.3036486541857659  0.6431392589846039  0.2774096366519763   T   T   T
  0.9734138538645389  0.0110920722167990  0.1826354694010096   T   T   T
  0.3096950993062894 -0.0155067032118137  0.2885543105539068   T   T   T
  0.3186812007118190  0.0101930691299116  0.1636871847231447   T   T   T
 -0.0179556046413083 -0.0177246886875429  0.2653598954294312   T   T   T
  0.6910891230530325  0.3223176711107172  0.0490122419862331   F   F   F
  0.0486349901715357  0.3525062411252051  0.0710278297026363   F   F   F
  0.6954463677419866  0.6630077820592390  0.0740326899200809   F   F   F
  0.3823500945200209  0.6925494194713409  0.0420185392271293   F   F   F
  0.3572396420070518  0.9956208784603575  0.0791641739826403   F   F   F
  0.0343190646981597  0.0047659948584169  0.0487926426243206   F   F   F
  0.4398234179914274  0.5712840815596344  0.3005604375097367   T   T   T
  0.4852415291134179  0.4507799606583163  0.2921422775918627   T   T   T
  0.6344700766022782  0.4407953815983440  0.2939292983228824   T   T   T
  0.8171670648984721  0.8329148809735412  0.2979204388372950   T   T   T
  0.6709970352890332  0.6481378502527466  0.3150589992287026   T   T   T
  0.0801004108447523  0.2563453021106775  0.3522558411310218   T   T   T
  0.3349755573850675  0.0318685645295610  0.3473593303527964   T   T   T
  0.5596981128695120  0.3181124123996497  0.9966964024348286   F   F   F
  0.3225111365496645  0.7871832873194649  0.9905822783424298   F   F   F
  0.8933420371027765  0.0014253246384754  0.9978161175675808   F   F   F
 
  0.00000000E+00  0.00000000E+00  0.00000000E+00
  0.00000000E+00  0.00000000E+00  0.00000000E+00
  0.00000000E+00  0.00000000E+00  0.00000000E+00
  0.00000000E+00  0.00000000E+00  0.00000000E+00
  0.00000000E+00  0.00000000E+00  0.00000000E+00
  0.00000000E+00  0.00000000E+00  0.00000000E+00
  0.00000000E+00  0.00000000E+00  0.00000000E+00
  0.00000000E+00  0.00000000E+00  0.00000000E+00
  0.00000000E+00  0.00000000E+00  0.00000000E+00
  0.00000000E+00  0.00000000E+00  0.00000000E+00
  0.00000000E+00  0.00000000E+00  0.00000000E+00
  0.00000000E+00  0.00000000E+00  0.00000000E+00
  0.00000000E+00  0.00000000E+00  0.00000000E+00
  0.00000000E+00  0.00000000E+00  0.00000000E+00
  0.00000000E+00  0.00000000E+00  0.00000000E+00
  0.00000000E+00  0.00000000E+00  0.00000000E+00
  0.00000000E+00  0.00000000E+00  0.00000000E+00
  0.00000000E+00  0.00000000E+00  0.00000000E+00
  0.00000000E+00  0.00000000E+00  0.00000000E+00
  0.00000000E+00  0.00000000E+00  0.00000000E+00
  0.00000000E+00  0.00000000E+00  0.00000000E+00
  0.00000000E+00  0.00000000E+00  0.00000000E+00
  0.00000000E+00  0.00000000E+00  0.00000000E+00
  0.00000000E+00  0.00000000E+00  0.00000000E+00
  0.00000000E+00  0.00000000E+00  0.00000000E+00
  0.00000000E+00  0.00000000E+00  0.00000000E+00
  0.00000000E+00  0.00000000E+00  0.00000000E+00
  0.00000000E+00  0.00000000E+00  0.00000000E+00
  0.00000000E+00  0.00000000E+00  0.00000000E+00
  0.00000000E+00  0.00000000E+00  0.00000000E+00
  0.00000000E+00  0.00000000E+00  0.00000000E+00
  0.00000000E+00  0.00000000E+00  0.00000000E+00
  0.00000000E+00  0.00000000E+00  0.00000000E+00
  0.00000000E+00  0.00000000E+00  0.00000000E+00
  0.00000000E+00  0.00000000E+00  0.00000000E+00
  0.00000000E+00  0.00000000E+00  0.00000000E+00
  0.00000000E+00  0.00000000E+00  0.00000000E+00
  0.00000000E+00  0.00000000E+00  0.00000000E+00
  0.00000000E+00  0.00000000E+00  0.00000000E+00
  0.00000000E+00  0.00000000E+00  0.00000000E+00
  0.00000000E+00  0.00000000E+00  0.00000000E+00
  0.00000000E+00  0.00000000E+00  0.00000000E+00
  0.00000000E+00  0.00000000E+00  0.00000000E+00
  0.00000000E+00  0.00000000E+00  0.00000000E+00
  0.00000000E+00  0.00000000E+00  0.00000000E+00
  0.00000000E+00  0.00000000E+00  0.00000000E+00
  0.00000000E+00  0.00000000E+00  0.00000000E+00
  0.00000000E+00  0.00000000E+00  0.00000000E+00
  0.00000000E+00  0.00000000E+00  0.00000000E+00
  0.00000000E+00  0.00000000E+00  0.00000000E+00
  0.00000000E+00  0.00000000E+00  0.00000000E+00
  0.00000000E+00  0.00000000E+00  0.00000000E+00
  0.00000000E+00  0.00000000E+00  0.00000000E+00
  0.00000000E+00  0.00000000E+00  0.00000000E+00
  0.00000000E+00  0.00000000E+00  0.00000000E+00
  0.00000000E+00  0.00000000E+00  0.00000000E+00
  0.00000000E+00  0.00000000E+00  0.00000000E+00
  0.00000000E+00  0.00000000E+00  0.00000000E+00
  0.00000000E+00  0.00000000E+00  0.00000000E+00
  0.00000000E+00  0.00000000E+00  0.00000000E+00
  0.00000000E+00  0.00000000E+00  0.00000000E+00
  0.00000000E+00  0.00000000E+00  0.00000000E+00
