XCrySDen XSF file                       
   1.00000000000000     
     8.7557992935000009    0.0000000000000000    0.0000000000000000
    -4.3755486645000001    7.6221232039000002    0.0000000000000000
     0.0000000000000000    0.0000000000000000   37.2496528624999996
   O    Si   C    Fe   H 
    35    17     3     1     7
Selective dynamics
Direct
  0.9371708598966239  0.1456116388832756  0.1601763675360776   T   T   T
  0.7607495176758543  0.2507700085159840  0.2930297688967832   T   T   T
  0.0364961517096834  0.1951216853030230  0.2852565059960113   T   T   T
  0.8374112039484405  0.3867019636652868  0.1592808157628554   T   T   T
  0.7276787246007401  0.3405151167592985  0.2259793489842156   T   T   T
  0.0688921161115929  0.4089973343629178  0.1129598748922526   T   T   T
  0.6010780193358491  0.4761312941395197  0.1784955808126383   T   T   T
  0.1614544566325900  0.4692441562012972  0.1816007160298227   T   T   T
  0.5006761960599747  0.7110087137886383  0.1725331656348957   T   T   T
  0.0788052855002027  0.5163759513330474  0.2836297193929635   T   T   T
  0.3467919127018920  0.6649437592981938  0.2364053205009166   T   T   T
  0.6250041025863067  0.6245248025711235  0.1152284123679326   T   T   T
  0.8420343080156352  0.8110600737004324  0.1674723395638865   T   T   T
  0.2623484886473058  0.8082040600358135  0.1824879522017109   T   T   T
  0.1031021438229678  0.9411331982322829  0.2716214069786052   T   T   T
  0.3285009163666469  0.8412612480797105  0.2944506383828315   T   T   T
  0.1736246793812236  0.0540875363226845  0.1786921700421477   T   T   T
  0.9229314484243075  0.0173847965635379  0.2249758430876745   T   T   T
  0.2899669447523879  0.9705692892491459  0.1204477913938101   T   T   T
  0.5096139456721406  0.1396117275436470  0.1743444406028588   T   T   T
  0.4434357628815834  0.1505220639436942  0.2654030698724290   T   T   T
  0.2898899918574282  0.0796681262363616  0.3313804338748874   T   T   T
  0.9948637763698188  0.3348440649168335  0.3456929076255686   T   T   T
  0.8519818603517848  0.2834186672415200  0.0551449434329641   F   F   F
  0.0950442539208964  0.1962045167722835  0.0664311962619948   F   F   F
  0.6435243804665305  0.2873233535348021  0.0062649442898532   F   F   F
  0.5340368832223561  0.6406750283833489  0.0487701726162655   F   F   F
  0.7535487030588044  0.5234809111926211  0.0605608865222749   F   F   F
  0.1881938317753793  0.5236841354070023  0.0485992448488659   F   F   F
  0.4050355164736175  0.7543958351470721  0.0000624435349366   F   F   F
  0.8625582792101696  0.8600146999258627  0.0708431568407093   F   F   F
  0.1975223989154387  0.9665013019247226  0.0524192536023804   F   F   F
  0.4132527475511694  0.8496875249518681  0.0695734000412358   F   F   F
  0.9971027802074630  0.9977975685447547  0.0056476767924920   F   F   F
  0.5247863137266933  0.1916698222947204  0.0742682357393178   F   F   F
  0.6667735109706054  0.3346366859469454  0.1842669975765020   T   T   T
  0.6472240728288481  0.3041911322542337  0.2663454671415336   T   T   T
  0.9688936183396376  0.3214333657586141  0.3018115474689405   T   T   T
  0.0018712952264383  0.3516919093278529  0.1539157820345261   T   T   T
  0.3182333760186133  0.6633761981697283  0.1930516077009932   T   T   T
  0.6432094528377337  0.6572803070842661  0.1582926398158841   T   T   T
  0.2899647487162413  0.6535092560282759  0.2783329005949371   T   T   T
  0.9697725613117550  0.0070209501002255  0.1834225121155013   T   T   T
  0.2892017365566114  0.0031330687205603  0.2909233769314341   T   T   T
  0.3093633496394754  0.9937331395805220  0.1637785876662762   T   T   T
  0.9435658641874566  0.9920922440547514  0.2684002879364298   T   T   T
  0.6910891230530325  0.3223176711107172  0.0490122419862331   F   F   F
  0.0486349901715357  0.3525062411252051  0.0710278297026363   F   F   F
  0.6954463677419866  0.6630077820592390  0.0740326899200809   F   F   F
  0.3823500945200209  0.6925494194713409  0.0420185392271293   F   F   F
  0.3572396420070518  0.9956208784603575  0.0791641739826403   F   F   F
  0.0343190646981597  0.0047659948584169  0.0487926426243206   F   F   F
  0.4225781207375406  0.5927232488254510  0.3076398385535949   T   T   T
  0.5209182674142967  0.5214233915898115  0.2961468635196953   T   T   T
  0.6512790360549026  0.5036251282273612  0.2838023856146597   T   T   T
  0.6947965857427881  0.7684354633468637  0.2977692505603067   T   T   T
  0.0404139868703768  0.2626465285860874  0.3551489354247128   T   T   T
  0.3722163850705419  0.0758269164602522  0.3481814384553454   T   T   T
  0.3857517748743951  0.5779774851060024  0.3361258736355218   T   T   T
  0.7878051837859629  0.6320938841365792  0.2816080283449299   T   T   T
  0.5596981128695120  0.3181124123996497  0.9966964024348286   F   F   F
  0.3225111365496645  0.7871832873194649  0.9905822783424298   F   F   F
  0.8933420371027765  0.0014253246384754  0.9978161175675808   F   F   F
 
  0.00000000E+00  0.00000000E+00  0.00000000E+00
  0.00000000E+00  0.00000000E+00  0.00000000E+00
  0.00000000E+00  0.00000000E+00  0.00000000E+00
  0.00000000E+00  0.00000000E+00  0.00000000E+00
  0.00000000E+00  0.00000000E+00  0.00000000E+00
  0.00000000E+00  0.00000000E+00  0.00000000E+00
  0.00000000E+00  0.00000000E+00  0.00000000E+00
  0.00000000E+00  0.00000000E+00  0.00000000E+00
  0.00000000E+00  0.00000000E+00  0.00000000E+00
  0.00000000E+00  0.00000000E+00  0.00000000E+00
  0.00000000E+00  0.00000000E+00  0.00000000E+00
  0.00000000E+00  0.00000000E+00  0.00000000E+00
  0.00000000E+00  0.00000000E+00  0.00000000E+00
  0.00000000E+00  0.00000000E+00  0.00000000E+00
  0.00000000E+00  0.00000000E+00  0.00000000E+00
  0.00000000E+00  0.00000000E+00  0.00000000E+00
  0.00000000E+00  0.00000000E+00  0.00000000E+00
  0.00000000E+00  0.00000000E+00  0.00000000E+00
  0.00000000E+00  0.00000000E+00  0.00000000E+00
  0.00000000E+00  0.00000000E+00  0.00000000E+00
  0.00000000E+00  0.00000000E+00  0.00000000E+00
  0.00000000E+00  0.00000000E+00  0.00000000E+00
  0.00000000E+00  0.00000000E+00  0.00000000E+00
  0.00000000E+00  0.00000000E+00  0.00000000E+00
  0.00000000E+00  0.00000000E+00  0.00000000E+00
  0.00000000E+00  0.00000000E+00  0.00000000E+00
  0.00000000E+00  0.00000000E+00  0.00000000E+00
  0.00000000E+00  0.00000000E+00  0.00000000E+00
  0.00000000E+00  0.00000000E+00  0.00000000E+00
  0.00000000E+00  0.00000000E+00  0.00000000E+00
  0.00000000E+00  0.00000000E+00  0.00000000E+00
  0.00000000E+00  0.00000000E+00  0.00000000E+00
  0.00000000E+00  0.00000000E+00  0.00000000E+00
  0.00000000E+00  0.00000000E+00  0.00000000E+00
  0.00000000E+00  0.00000000E+00  0.00000000E+00
  0.00000000E+00  0.00000000E+00  0.00000000E+00
  0.00000000E+00  0.00000000E+00  0.00000000E+00
  0.00000000E+00  0.00000000E+00  0.00000000E+00
  0.00000000E+00  0.00000000E+00  0.00000000E+00
  0.00000000E+00  0.00000000E+00  0.00000000E+00
  0.00000000E+00  0.00000000E+00  0.00000000E+00
  0.00000000E+00  0.00000000E+00  0.00000000E+00
  0.00000000E+00  0.00000000E+00  0.00000000E+00
  0.00000000E+00  0.00000000E+00  0.00000000E+00
  0.00000000E+00  0.00000000E+00  0.00000000E+00
  0.00000000E+00  0.00000000E+00  0.00000000E+00
  0.00000000E+00  0.00000000E+00  0.00000000E+00
  0.00000000E+00  0.00000000E+00  0.00000000E+00
  0.00000000E+00  0.00000000E+00  0.00000000E+00
  0.00000000E+00  0.00000000E+00  0.00000000E+00
  0.00000000E+00  0.00000000E+00  0.00000000E+00
  0.00000000E+00  0.00000000E+00  0.00000000E+00
  0.00000000E+00  0.00000000E+00  0.00000000E+00
  0.00000000E+00  0.00000000E+00  0.00000000E+00
  0.00000000E+00  0.00000000E+00  0.00000000E+00
  0.00000000E+00  0.00000000E+00  0.00000000E+00
  0.00000000E+00  0.00000000E+00  0.00000000E+00
  0.00000000E+00  0.00000000E+00  0.00000000E+00
  0.00000000E+00  0.00000000E+00  0.00000000E+00
  0.00000000E+00  0.00000000E+00  0.00000000E+00
  0.00000000E+00  0.00000000E+00  0.00000000E+00
  0.00000000E+00  0.00000000E+00  0.00000000E+00
  0.00000000E+00  0.00000000E+00  0.00000000E+00
