FeC2 at SiO2 2x2                        
   1.00000000000000     
    10.1103267670000001    0.0000000000000000    0.0000000000000000
    -5.0524506940000000    8.8012629086000000    0.0000000000000000
     0.0000000000000000    0.0000000000000000   37.2496490479000002
   O    Si   C    Fe   H 
    48    23     3     1     7
Selective dynamics
Direct
  0.0435383348609741  0.6853829255080185  0.1604966782085102   T   T   T
  0.5547426981243506  0.1752430023691346  0.1899284912522081   T   T   T
  0.1282510296980465  0.0204024228266134  0.2867990206360873   T   T   T
  0.5733763803649244  0.3883840290979000  0.2982993274165596   T   T   T
  0.1197879095685057  0.7573006591900722  0.2728310963241021   T   T   T
  0.6539333325676966  0.2014650289948311  0.2720400867017074   T   T   T
  0.1328295656856119  0.9799750675752283  0.1606747432407166   T   T   T
  0.6173807376885028  0.4576643518034506  0.1795847257615285   T   T   T
  0.4642421198075403  0.4510291358572513  0.2385979999854668   T   T   T
  0.2180799743205526  0.8680404547516376  0.1076376370497953   T   T   T
  0.6142111401828104  0.2851406874902997  0.1250554889397646   T   T   T
  0.5616807589665856  0.6797732749200224  0.1926187631049188   T   T   T
  0.3356662447523144  0.8912054468947800  0.1719165765473140   T   T   T
  0.8384920283742758  0.3947929660390558  0.1737718805327179   T   T   T
  0.6237988948889787  0.9597069424523901  0.1777492763496997   T   T   T
  0.3736471820220153  0.9968752035148059  0.2986390930121279   T   T   T
  0.8592821587111271  0.4940393182788459  0.2741763893738713   T   T   T
  0.0333403865020969  0.0311081423147489  0.2219423928490003   T   T   T
  0.6063303309717926  0.7748009568457761  0.1250155452410404   T   T   T
  0.8401739362973831  0.8894026118111954  0.1693199830945120   T   T   T
  0.0466724228116582  0.1845989485218414  0.1620873173284665   T   T   T
  0.1294351729476757  0.5067389159711052  0.2861109167238464   T   T   T
  0.0369348953582852  0.2175502309065292  0.2709516448473843   T   T   T
  0.1245035607409851  0.4759873541689937  0.1592220818212440   T   T   T
  0.0576359016223550  0.5558568768561133  0.2212467780821639   T   T   T
  0.4650642794349311  0.9511989162773978  0.2356870824732091   T   T   T
  0.2184072483276002  0.3642277580808505  0.1081525501422609   T   T   T
  0.3333297727337121  0.4008445879105804  0.1743540423696042   T   T   T
  0.3095379910116270  0.3857235431402298  0.3007260423437206   T   T   T
  0.0590359888474515  0.3211931399360153  0.3391640998811757   T   T   T
  0.1251935225306778  0.8563629049773536  0.3406924592541623   T   T   T
  0.7626109758107967  0.3392728007664951  0.3366140240168976   T   T   T
  0.0685558492429763  0.8648517921856751  0.0477252818600746   F   F   F
  0.5606494347801529  0.3228801399880012  0.0576939932302807   F   F   F
  0.1016123751303226  0.6308709395073890  0.0637686544897491   F   F   F
  0.6088779381378941  0.0982794184178744  0.0739611263573821   F   F   F
  0.6053665436076230  0.5064426601373953  0.0056973422682987   F   F   F
  0.5606509178295269  0.8228761116683927  0.0576861810761429   F   F   F
  0.6088785748061483  0.5982883427848407  0.0739675962170026   F   F   F
  0.3437516310968007  0.8933148664741637  0.0441083618771074   F   F   F
  0.8401401120975720  0.3842208822890285  0.0789567975853416   F   F   F
  0.8401382924420133  0.8842369647196406  0.0789558579791745   F   F   F
  0.9136327426745083  0.9574825894322103  0.0094439815942309   F   F   F
  0.0685657003182527  0.3648628649488685  0.0477213623600647   F   F   F
  0.1016157953902947  0.1308750814470585  0.0637617014041041   F   F   F
  0.9136358586150450  0.4575080919427421  0.0094465051079382   F   F   F
  0.6053299463523274  0.0064274866672491  0.0056895838059461   F   F   F
  0.3437649018498519  0.3933260528574110  0.0441086303360123   F   F   F
  0.4921909483378507  0.4966248705306109  0.1961762537183603   T   T   T
  0.4782547542929957  0.4645385385412109  0.2822768835204684   T   T   T
  0.1868431758070838  0.9052401489582013  0.2993749311985699   T   T   T
  0.7157100195041366  0.3568168182651053  0.2957456506684417   T   T   T
  0.1815610396093421  0.8549669904262643  0.1503340898654112   T   T   T
  0.6580472286835177  0.3289160653712252  0.1669646997826073   T   T   T
  0.0125669382632190  0.0220985193301420  0.1788757730794714   T   T   T
  0.6586597834576043  0.8255484416436533  0.1662660941987972   T   T   T
  0.0146055857822299  0.5274391164648051  0.1789200691633465   T   T   T
  0.4939721044569178  0.9945492383620048  0.1933427992008327   T   T   T
  0.1355903296164798  0.3560498208547616  0.2985270180371986   T   T   T
  0.1805374767154974  0.3546780171813855  0.1508903793418046   T   T   T
  0.0399521645947964  0.5772155373006728  0.2636974404424520   T   T   T
  0.5224518023449918  0.0241333806238603  0.2755646431818745   T   T   T
  0.9947550074959445  0.0384440664621732  0.2645457434668055   T   T   T
  0.5267204300318298  0.4572681263807610  0.0457187663113316   F   F   F
  0.1823797190101288  0.8142212173888908  0.0660228233784821   F   F   F
  0.6570537899050564  0.2727190432698734  0.0839010857788551   F   F   F
  0.6570514903559541  0.7727353529405931  0.0839000387891247   F   F   F
  0.9798382536438126  0.9613162438009510  0.0497144012717712   F   F   F
  0.1823829121519296  0.3142249048483308  0.0660197092551869   F   F   F
  0.9798401463212727  0.4613197040202763  0.0497156898745175   F   F   F
  0.5267076135151214  0.9572578489579726  0.0457131018284329   F   F   F
  0.5743099821312320  0.6610905747647970  0.2975656395741511   T   T   T
  0.5382869626319959  0.7685116891673088  0.3008107700845508   T   T   T
  0.6043036662868528  0.9208115386064480  0.2980461674636302   T   T   T
  0.7548264764649074  0.8618456149087871  0.2924643790250938   T   T   T
  0.1565042221717722  0.7938503689419899  0.3536485053825377   T   T   T
  0.8520533504668264  0.3275849365140167  0.3399174580928198   T   T   T
  0.0732695684843947  0.2507159613926517  0.3539407548115268   T   T   T
  0.6009919123795981  0.5873746817571543  0.9928777571150036   F   F   F
  0.8411526692956244  0.4932316015418863  0.0060564060539150   F   F   F
  0.6009155614678434  0.0873320122330341  0.9928672066800317   F   F   F
  0.8411699374409309  0.9932284821827366  0.0060500435778650   F   F   F
 
  0.00000000E+00  0.00000000E+00  0.00000000E+00
  0.00000000E+00  0.00000000E+00  0.00000000E+00
  0.00000000E+00  0.00000000E+00  0.00000000E+00
  0.00000000E+00  0.00000000E+00  0.00000000E+00
  0.00000000E+00  0.00000000E+00  0.00000000E+00
  0.00000000E+00  0.00000000E+00  0.00000000E+00
  0.00000000E+00  0.00000000E+00  0.00000000E+00
  0.00000000E+00  0.00000000E+00  0.00000000E+00
  0.00000000E+00  0.00000000E+00  0.00000000E+00
  0.00000000E+00  0.00000000E+00  0.00000000E+00
  0.00000000E+00  0.00000000E+00  0.00000000E+00
  0.00000000E+00  0.00000000E+00  0.00000000E+00
  0.00000000E+00  0.00000000E+00  0.00000000E+00
  0.00000000E+00  0.00000000E+00  0.00000000E+00
  0.00000000E+00  0.00000000E+00  0.00000000E+00
  0.00000000E+00  0.00000000E+00  0.00000000E+00
  0.00000000E+00  0.00000000E+00  0.00000000E+00
  0.00000000E+00  0.00000000E+00  0.00000000E+00
  0.00000000E+00  0.00000000E+00  0.00000000E+00
  0.00000000E+00  0.00000000E+00  0.00000000E+00
  0.00000000E+00  0.00000000E+00  0.00000000E+00
  0.00000000E+00  0.00000000E+00  0.00000000E+00
  0.00000000E+00  0.00000000E+00  0.00000000E+00
  0.00000000E+00  0.00000000E+00  0.00000000E+00
  0.00000000E+00  0.00000000E+00  0.00000000E+00
  0.00000000E+00  0.00000000E+00  0.00000000E+00
  0.00000000E+00  0.00000000E+00  0.00000000E+00
  0.00000000E+00  0.00000000E+00  0.00000000E+00
  0.00000000E+00  0.00000000E+00  0.00000000E+00
  0.00000000E+00  0.00000000E+00  0.00000000E+00
  0.00000000E+00  0.00000000E+00  0.00000000E+00
  0.00000000E+00  0.00000000E+00  0.00000000E+00
  0.00000000E+00  0.00000000E+00  0.00000000E+00
  0.00000000E+00  0.00000000E+00  0.00000000E+00
  0.00000000E+00  0.00000000E+00  0.00000000E+00
  0.00000000E+00  0.00000000E+00  0.00000000E+00
  0.00000000E+00  0.00000000E+00  0.00000000E+00
  0.00000000E+00  0.00000000E+00  0.00000000E+00
  0.00000000E+00  0.00000000E+00  0.00000000E+00
  0.00000000E+00  0.00000000E+00  0.00000000E+00
  0.00000000E+00  0.00000000E+00  0.00000000E+00
  0.00000000E+00  0.00000000E+00  0.00000000E+00
  0.00000000E+00  0.00000000E+00  0.00000000E+00
  0.00000000E+00  0.00000000E+00  0.00000000E+00
  0.00000000E+00  0.00000000E+00  0.00000000E+00
  0.00000000E+00  0.00000000E+00  0.00000000E+00
  0.00000000E+00  0.00000000E+00  0.00000000E+00
  0.00000000E+00  0.00000000E+00  0.00000000E+00
  0.00000000E+00  0.00000000E+00  0.00000000E+00
  0.00000000E+00  0.00000000E+00  0.00000000E+00
  0.00000000E+00  0.00000000E+00  0.00000000E+00
  0.00000000E+00  0.00000000E+00  0.00000000E+00
  0.00000000E+00  0.00000000E+00  0.00000000E+00
  0.00000000E+00  0.00000000E+00  0.00000000E+00
  0.00000000E+00  0.00000000E+00  0.00000000E+00
  0.00000000E+00  0.00000000E+00  0.00000000E+00
  0.00000000E+00  0.00000000E+00  0.00000000E+00
  0.00000000E+00  0.00000000E+00  0.00000000E+00
  0.00000000E+00  0.00000000E+00  0.00000000E+00
  0.00000000E+00  0.00000000E+00  0.00000000E+00
  0.00000000E+00  0.00000000E+00  0.00000000E+00
  0.00000000E+00  0.00000000E+00  0.00000000E+00
  0.00000000E+00  0.00000000E+00  0.00000000E+00
  0.00000000E+00  0.00000000E+00  0.00000000E+00
  0.00000000E+00  0.00000000E+00  0.00000000E+00
  0.00000000E+00  0.00000000E+00  0.00000000E+00
  0.00000000E+00  0.00000000E+00  0.00000000E+00
  0.00000000E+00  0.00000000E+00  0.00000000E+00
  0.00000000E+00  0.00000000E+00  0.00000000E+00
  0.00000000E+00  0.00000000E+00  0.00000000E+00
  0.00000000E+00  0.00000000E+00  0.00000000E+00
  0.00000000E+00  0.00000000E+00  0.00000000E+00
  0.00000000E+00  0.00000000E+00  0.00000000E+00
  0.00000000E+00  0.00000000E+00  0.00000000E+00
  0.00000000E+00  0.00000000E+00  0.00000000E+00
  0.00000000E+00  0.00000000E+00  0.00000000E+00
  0.00000000E+00  0.00000000E+00  0.00000000E+00
  0.00000000E+00  0.00000000E+00  0.00000000E+00
  0.00000000E+00  0.00000000E+00  0.00000000E+00
  0.00000000E+00  0.00000000E+00  0.00000000E+00
  0.00000000E+00  0.00000000E+00  0.00000000E+00
  0.00000000E+00  0.00000000E+00  0.00000000E+00
