FeC2 at SiO2 2x2                        
   1.00000000000000     
    10.1103267670000001    0.0000000000000000    0.0000000000000000
    -5.0524506940000000    8.8012629086000000    0.0000000000000000
     0.0000000000000000    0.0000000000000000   37.2496490479000002
   O    Si   C    Fe   H 
    48    23     1     1     7
Selective dynamics
Direct
  0.0587981139041066  0.6912796751421442  0.1634576763228413   T   T   T
  0.5693661564907356  0.1822910692211675  0.1913943236954746   T   T   T
  0.1104951272343066  0.9745271690588572  0.2889819662308984   T   T   T
  0.6008235826250646  0.4248466437424422  0.2951692201794744   T   T   T
  0.0574644307955225  0.7021637078596152  0.2750143363654576   T   T   T
  0.5971206127771086  0.1563681035274384  0.2863565049677324   T   T   T
  0.1472848574535162  0.9845619641949717  0.1645993204710894   T   T   T
  0.6335767851035544  0.4648584051366065  0.1797965756382277   T   T   T
  0.4701795086497657  0.4624907523405494  0.2366658772638680   T   T   T
  0.2132137835025821  0.8681054612664545  0.1077901404484371   T   T   T
  0.6142421357007063  0.2836905479484491  0.1252705621838776   T   T   T
  0.5802842163013574  0.6905226321240387  0.1920895763886042   T   T   T
  0.3558207950363493  0.9013261144930260  0.1686702171808492   T   T   T
  0.8494356130323601  0.3973321740506140  0.1707145926927516   T   T   T
  0.6410839707618869  0.9702925490434138  0.1789950478231653   T   T   T
  0.3396615082719579  0.9015522693680190  0.2981999705332454   T   T   T
  0.8374119938419408  0.4125859379056446  0.2675129311092188   T   T   T
  0.0255762697473098  0.0205941707663542  0.2250909504684403   T   T   T
  0.6114110465461772  0.7813899376341902  0.1251321544397731   T   T   T
  0.8550866155655794  0.8997439043195898  0.1672346351396595   T   T   T
  0.0661149386502951  0.1930899770620491  0.1666284635986381   T   T   T
  0.1214568765518039  0.4854108010803262  0.2871148997945782   T   T   T
  0.0606332798490566  0.2005812086054589  0.2791362675872741   T   T   T
  0.1372005534760292  0.4813321092295763  0.1577425699937567   T   T   T
  0.0623395253464221  0.5359956442156216  0.2209878179931399   T   T   T
  0.4620924107638211  0.9464784504120800  0.2346713347604583   T   T   T
  0.2190828474697656  0.3592016605711008  0.1081099331214423   T   T   T
  0.3538154897257018  0.4137836666794891  0.1713255287682767   T   T   T
  0.3421035653597403  0.4246830596808389  0.3007686422960745   T   T   T
  0.0990488723956646  0.3312953773374602  0.3441807646570780   T   T   T
  0.1074197532472796  0.8119682772446914  0.3433072711613763   T   T   T
  0.7622048018787608  0.3591202012551421  0.3380620442902830   T   T   T
  0.0685558492429763  0.8648517921856751  0.0477252818600746   F   F   F
  0.5606494347801529  0.3228801399880012  0.0576939932302807   F   F   F
  0.1016123751303226  0.6308709395073890  0.0637686544897491   F   F   F
  0.6088779381378941  0.0982794184178744  0.0739611263573821   F   F   F
  0.6053665436076230  0.5064426601373953  0.0056973422682987   F   F   F
  0.5606509178295269  0.8228761116683927  0.0576861810761429   F   F   F
  0.6088785748061483  0.5982883427848407  0.0739675962170026   F   F   F
  0.3437516310968007  0.8933148664741637  0.0441083618771074   F   F   F
  0.8401401120975720  0.3842208822890285  0.0789567975853416   F   F   F
  0.8401382924420133  0.8842369647196406  0.0789558579791745   F   F   F
  0.9136327426745083  0.9574825894322103  0.0094439815942309   F   F   F
  0.0685657003182527  0.3648628649488685  0.0477213623600647   F   F   F
  0.1016157953902947  0.1308750814470585  0.0637617014041041   F   F   F
  0.9136358586150450  0.4575080919427421  0.0094465051079382   F   F   F
  0.6053299463523274  0.0064274866672491  0.0056895838059461   F   F   F
  0.3437649018498519  0.3933260528574110  0.0441086303360123   F   F   F
  0.5083233939206407  0.5074839154778953  0.1944120708399791   T   T   T
  0.5033775259508791  0.4989296136697218  0.2791806482113907   T   T   T
  0.1576525513616655  0.8488254373163229  0.3009850413276070   T   T   T
  0.6987446776921864  0.3357670963251781  0.2967974022927260   T   T   T
  0.1924771103118559  0.8598947496144095  0.1511471059487612   T   T   T
  0.6678391535287921  0.3320875929431935  0.1666609454197456   T   T   T
  0.0236170054148253  0.0251518422348570  0.1816290991600596   T   T   T
  0.6734004058696411  0.8363794400321068  0.1657036655237369   T   T   T
  0.0248645565905504  0.5266015903703291  0.1784369892595196   T   T   T
  0.5055395439552151  0.0000708102209073  0.1933844282812038   T   T   T
  0.1568832668131093  0.3561295321116068  0.3020515526713357   T   T   T
  0.1925028386834447  0.3585952270021793  0.1510727663810560   T   T   T
  0.0185580848052243  0.5336809225768434  0.2628529188318395   T   T   T
  0.5063568429481287  0.9706485869653798  0.2778017255866166   T   T   T
 -0.0098392057877204  0.0171830348140575  0.2686854961393331   T   T   T
  0.5267204300318298  0.4572681263807610  0.0457187663113316   F   F   F
  0.1823797190101288  0.8142212173888908  0.0660228233784821   F   F   F
  0.6570537899050564  0.2727190432698734  0.0839010857788551   F   F   F
  0.6570514903559541  0.7727353529405931  0.0839000387891247   F   F   F
  0.9798382536438126  0.9613162438009510  0.0497144012717712   F   F   F
  0.1823829121519296  0.3142249048483308  0.0660197092551869   F   F   F
  0.9798401463212727  0.4613197040202763  0.0497156898745175   F   F   F
  0.5267076135151214  0.9572578489579726  0.0457131018284329   F   F   F
  0.6087458386564304  0.7175005690846551  0.2829638365423132   T   T   T
  0.7065778108603712  0.9003170676426627  0.2816092922469556   T   T   T
  0.1504845152535985  0.7604136830970792  0.3566057405668819   T   T   T
  0.8434071050608448  0.3373377286248702  0.3433106484309165   T   T   T
  0.1208177848599543  0.2654561702141235  0.3587805862278419   T   T   T
  0.6009919123795981  0.5873746817571543  0.9928777571150036   F   F   F
  0.8411526692956244  0.4932316015418863  0.0060564060539150   F   F   F
  0.6009155614678434  0.0873320122330341  0.9928672066800317   F   F   F
  0.8411699374409309  0.9932284821827366  0.0060500435778650   F   F   F
 
  0.00000000E+00  0.00000000E+00  0.00000000E+00
  0.00000000E+00  0.00000000E+00  0.00000000E+00
  0.00000000E+00  0.00000000E+00  0.00000000E+00
  0.00000000E+00  0.00000000E+00  0.00000000E+00
  0.00000000E+00  0.00000000E+00  0.00000000E+00
  0.00000000E+00  0.00000000E+00  0.00000000E+00
  0.00000000E+00  0.00000000E+00  0.00000000E+00
  0.00000000E+00  0.00000000E+00  0.00000000E+00
  0.00000000E+00  0.00000000E+00  0.00000000E+00
  0.00000000E+00  0.00000000E+00  0.00000000E+00
  0.00000000E+00  0.00000000E+00  0.00000000E+00
  0.00000000E+00  0.00000000E+00  0.00000000E+00
  0.00000000E+00  0.00000000E+00  0.00000000E+00
  0.00000000E+00  0.00000000E+00  0.00000000E+00
  0.00000000E+00  0.00000000E+00  0.00000000E+00
  0.00000000E+00  0.00000000E+00  0.00000000E+00
  0.00000000E+00  0.00000000E+00  0.00000000E+00
  0.00000000E+00  0.00000000E+00  0.00000000E+00
  0.00000000E+00  0.00000000E+00  0.00000000E+00
  0.00000000E+00  0.00000000E+00  0.00000000E+00
  0.00000000E+00  0.00000000E+00  0.00000000E+00
  0.00000000E+00  0.00000000E+00  0.00000000E+00
  0.00000000E+00  0.00000000E+00  0.00000000E+00
  0.00000000E+00  0.00000000E+00  0.00000000E+00
  0.00000000E+00  0.00000000E+00  0.00000000E+00
  0.00000000E+00  0.00000000E+00  0.00000000E+00
  0.00000000E+00  0.00000000E+00  0.00000000E+00
  0.00000000E+00  0.00000000E+00  0.00000000E+00
  0.00000000E+00  0.00000000E+00  0.00000000E+00
  0.00000000E+00  0.00000000E+00  0.00000000E+00
  0.00000000E+00  0.00000000E+00  0.00000000E+00
  0.00000000E+00  0.00000000E+00  0.00000000E+00
  0.00000000E+00  0.00000000E+00  0.00000000E+00
  0.00000000E+00  0.00000000E+00  0.00000000E+00
  0.00000000E+00  0.00000000E+00  0.00000000E+00
  0.00000000E+00  0.00000000E+00  0.00000000E+00
  0.00000000E+00  0.00000000E+00  0.00000000E+00
  0.00000000E+00  0.00000000E+00  0.00000000E+00
  0.00000000E+00  0.00000000E+00  0.00000000E+00
  0.00000000E+00  0.00000000E+00  0.00000000E+00
  0.00000000E+00  0.00000000E+00  0.00000000E+00
  0.00000000E+00  0.00000000E+00  0.00000000E+00
  0.00000000E+00  0.00000000E+00  0.00000000E+00
  0.00000000E+00  0.00000000E+00  0.00000000E+00
  0.00000000E+00  0.00000000E+00  0.00000000E+00
  0.00000000E+00  0.00000000E+00  0.00000000E+00
  0.00000000E+00  0.00000000E+00  0.00000000E+00
  0.00000000E+00  0.00000000E+00  0.00000000E+00
  0.00000000E+00  0.00000000E+00  0.00000000E+00
  0.00000000E+00  0.00000000E+00  0.00000000E+00
  0.00000000E+00  0.00000000E+00  0.00000000E+00
  0.00000000E+00  0.00000000E+00  0.00000000E+00
  0.00000000E+00  0.00000000E+00  0.00000000E+00
  0.00000000E+00  0.00000000E+00  0.00000000E+00
  0.00000000E+00  0.00000000E+00  0.00000000E+00
  0.00000000E+00  0.00000000E+00  0.00000000E+00
  0.00000000E+00  0.00000000E+00  0.00000000E+00
  0.00000000E+00  0.00000000E+00  0.00000000E+00
  0.00000000E+00  0.00000000E+00  0.00000000E+00
  0.00000000E+00  0.00000000E+00  0.00000000E+00
  0.00000000E+00  0.00000000E+00  0.00000000E+00
  0.00000000E+00  0.00000000E+00  0.00000000E+00
  0.00000000E+00  0.00000000E+00  0.00000000E+00
  0.00000000E+00  0.00000000E+00  0.00000000E+00
  0.00000000E+00  0.00000000E+00  0.00000000E+00
  0.00000000E+00  0.00000000E+00  0.00000000E+00
  0.00000000E+00  0.00000000E+00  0.00000000E+00
  0.00000000E+00  0.00000000E+00  0.00000000E+00
  0.00000000E+00  0.00000000E+00  0.00000000E+00
  0.00000000E+00  0.00000000E+00  0.00000000E+00
  0.00000000E+00  0.00000000E+00  0.00000000E+00
  0.00000000E+00  0.00000000E+00  0.00000000E+00
  0.00000000E+00  0.00000000E+00  0.00000000E+00
  0.00000000E+00  0.00000000E+00  0.00000000E+00
  0.00000000E+00  0.00000000E+00  0.00000000E+00
  0.00000000E+00  0.00000000E+00  0.00000000E+00
  0.00000000E+00  0.00000000E+00  0.00000000E+00
  0.00000000E+00  0.00000000E+00  0.00000000E+00
  0.00000000E+00  0.00000000E+00  0.00000000E+00
  0.00000000E+00  0.00000000E+00  0.00000000E+00
