XCrySDen XSF file                       
   1.00000000000000     
     8.7557991760000000    0.0014347150000000    0.0000000000000000
    -4.3767975578999998    7.6214061294000004    0.0000000000000000
     0.0000000000000000    0.0000000000000000   37.2496528624999996
   O    Si   C    Fe   H 
    35    17     1     1     5
Selective dynamics
Direct
  0.9296079305539925  0.1473121873643904  0.1636634802693250   T   T   T
  0.8475503754668579  0.3693459071883834  0.2928645983680352   T   T   T
  0.9838696493690422  0.1542000610873090  0.2921432905127263   T   T   T
  0.8363342590465026  0.3919149782772359  0.1623353592410729   T   T   T
  0.7095582539776069  0.3454168211117218  0.2286516646835789   T   T   T
  0.0576215740997549  0.4014260150660974  0.1133423165221457   T   T   T
  0.5958489831804308  0.4804786301333431  0.1790114126582564   T   T   T
  0.1637535129977979  0.4732260418309603  0.1805948210196729   T   T   T
  0.4995327147831063  0.7192685150608072  0.1697232926992056   T   T   T
  0.1976801989615465  0.5045662110959293  0.2943014915507409   T   T   T
  0.3516987471474828  0.6685242078735157  0.2342597102953027   T   T   T
  0.6302489899830703  0.6260643593854709  0.1154139802846673   T   T   T
  0.8398873109861215  0.8143014761250161  0.1693405112600883   T   T   T
  0.2589120861003113  0.8111276366587643  0.1821655641409820   T   T   T
  0.1513475258277462  0.9792712009449374  0.2748383976748199   T   T   T
  0.3687869723359757  0.8546947220538601  0.2914410758467051   T   T   T
  0.1746694642623756  0.0609583808938615  0.1771538989251815   T   T   T
  0.9446804145363286  0.0199660478024282  0.2276634070445782   T   T   T
  0.2930188130556888  0.9731131094017803  0.1204441677502823   T   T   T
  0.5086210195812807  0.1435115832111842  0.1755138409510600   T   T   T
  0.4946483248576849  0.1986707483408984  0.2845643235209290   T   T   T
  0.2946441274189334  0.0176008372182229  0.3409481491140686   T   T   T
  0.0018551579192362  0.3208121656633053  0.3505230205194459   T   T   T
  0.8519026110539869  0.2830175096409135  0.0551449455000963   F   F   F
  0.0951290435065033  0.1962061850667070  0.0664311973895266   F   F   F
  0.6435061787157181  0.2870410102154253  0.0062649441824689   F   F   F
  0.5342506074501685  0.6405541726310915  0.0487701749518550   F   F   F
  0.7536336604275746  0.5232028810499827  0.0605608868175764   F   F   F
  0.1884386361857082  0.5237255796688274  0.0485992416273646   F   F   F
  0.4053503677883512  0.7543799104697726  0.0000624435349366   F   F   F
  0.8628039680073414  0.8597700565214126  0.0708431599011377   F   F   F
  0.1980165186977203  0.9666623684948590  0.0524192516963211   F   F   F
  0.4136195033118710  0.8496938729704837  0.0695734043097360   F   F   F
  0.9973890368734430  0.9975159917261394  0.0056476771414893   F   F   F
  0.5247471517372873  0.1914274175841584  0.0742682395245922   F   F   F
  0.6615611540648576  0.3398356324837208  0.1861468410189596   T   T   T
  0.6819783223123230  0.3597283869356891  0.2713562730184939   T   T   T
  0.0097356901297801  0.3398398681718728  0.3065863863406612   T   T   T
 -0.0030432035046930  0.3525265800103863  0.1549623714515028   T   T   T
  0.3192714672054458  0.6682675333438347  0.1917351181392706   T   T   T
  0.6428215071604656  0.6619348261431480  0.1582873535736020   T   T   T
  0.3745759545592875  0.6766174788694200  0.2781939766527966   T   T   T
  0.9721226492208636  0.0101708117174782  0.1848082310080792   T   T   T
  0.3248301467335143  0.0117600659883773  0.2975843125207317   T   T   T
  0.3101101162756312  0.9976895724787573  0.1636671869340127   T   T   T
  0.9637020422541107 -0.0202696758242857  0.2704447089692655   T   T   T
  0.6910774899720735  0.3220183426711571  0.0490122440533654   F   F   F
  0.0488218116457233  0.3525782048129003  0.0710278288167245   F   F   F
  0.6956272550192253  0.6628021150869188  0.0740326861616509   F   F   F
  0.3826361464664956  0.6925288770002425  0.0420185394955936   F   F   F
  0.3577052593291512  0.9957001309194737  0.0791641802645557   F   F   F
  0.0343120899416434  0.0047479597412305  0.0487926409061856   F   F   F
  0.6814530140333093  0.5731722942834425  0.2786628396135097   T   T   T
  0.6749437981602073  0.7499751953514658  0.2842814683024997   T   T   T
  0.0256720162212312  0.4241965950345559  0.3640896892400646   T   T   T
  0.2551270298876493  0.0969162186919862  0.3490748778682306   T   T   T
  0.5597210857188841  0.3178860933932910  0.9966963901662567   F   F   F
  0.3228679203900313  0.7872232214258759  0.9905822695638307   F   F   F
  0.8930906914664405  0.0009212644617307  0.9978161294603112   F   F   F
 
  0.00000000E+00  0.00000000E+00  0.00000000E+00
  0.00000000E+00  0.00000000E+00  0.00000000E+00
  0.00000000E+00  0.00000000E+00  0.00000000E+00
  0.00000000E+00  0.00000000E+00  0.00000000E+00
  0.00000000E+00  0.00000000E+00  0.00000000E+00
  0.00000000E+00  0.00000000E+00  0.00000000E+00
  0.00000000E+00  0.00000000E+00  0.00000000E+00
  0.00000000E+00  0.00000000E+00  0.00000000E+00
  0.00000000E+00  0.00000000E+00  0.00000000E+00
  0.00000000E+00  0.00000000E+00  0.00000000E+00
  0.00000000E+00  0.00000000E+00  0.00000000E+00
  0.00000000E+00  0.00000000E+00  0.00000000E+00
  0.00000000E+00  0.00000000E+00  0.00000000E+00
  0.00000000E+00  0.00000000E+00  0.00000000E+00
  0.00000000E+00  0.00000000E+00  0.00000000E+00
  0.00000000E+00  0.00000000E+00  0.00000000E+00
  0.00000000E+00  0.00000000E+00  0.00000000E+00
  0.00000000E+00  0.00000000E+00  0.00000000E+00
  0.00000000E+00  0.00000000E+00  0.00000000E+00
  0.00000000E+00  0.00000000E+00  0.00000000E+00
  0.00000000E+00  0.00000000E+00  0.00000000E+00
  0.00000000E+00  0.00000000E+00  0.00000000E+00
  0.00000000E+00  0.00000000E+00  0.00000000E+00
  0.00000000E+00  0.00000000E+00  0.00000000E+00
  0.00000000E+00  0.00000000E+00  0.00000000E+00
  0.00000000E+00  0.00000000E+00  0.00000000E+00
  0.00000000E+00  0.00000000E+00  0.00000000E+00
  0.00000000E+00  0.00000000E+00  0.00000000E+00
  0.00000000E+00  0.00000000E+00  0.00000000E+00
  0.00000000E+00  0.00000000E+00  0.00000000E+00
  0.00000000E+00  0.00000000E+00  0.00000000E+00
  0.00000000E+00  0.00000000E+00  0.00000000E+00
  0.00000000E+00  0.00000000E+00  0.00000000E+00
  0.00000000E+00  0.00000000E+00  0.00000000E+00
  0.00000000E+00  0.00000000E+00  0.00000000E+00
  0.00000000E+00  0.00000000E+00  0.00000000E+00
  0.00000000E+00  0.00000000E+00  0.00000000E+00
  0.00000000E+00  0.00000000E+00  0.00000000E+00
  0.00000000E+00  0.00000000E+00  0.00000000E+00
  0.00000000E+00  0.00000000E+00  0.00000000E+00
  0.00000000E+00  0.00000000E+00  0.00000000E+00
  0.00000000E+00  0.00000000E+00  0.00000000E+00
  0.00000000E+00  0.00000000E+00  0.00000000E+00
  0.00000000E+00  0.00000000E+00  0.00000000E+00
  0.00000000E+00  0.00000000E+00  0.00000000E+00
  0.00000000E+00  0.00000000E+00  0.00000000E+00
  0.00000000E+00  0.00000000E+00  0.00000000E+00
  0.00000000E+00  0.00000000E+00  0.00000000E+00
  0.00000000E+00  0.00000000E+00  0.00000000E+00
  0.00000000E+00  0.00000000E+00  0.00000000E+00
  0.00000000E+00  0.00000000E+00  0.00000000E+00
  0.00000000E+00  0.00000000E+00  0.00000000E+00
  0.00000000E+00  0.00000000E+00  0.00000000E+00
  0.00000000E+00  0.00000000E+00  0.00000000E+00
  0.00000000E+00  0.00000000E+00  0.00000000E+00
  0.00000000E+00  0.00000000E+00  0.00000000E+00
  0.00000000E+00  0.00000000E+00  0.00000000E+00
  0.00000000E+00  0.00000000E+00  0.00000000E+00
  0.00000000E+00  0.00000000E+00  0.00000000E+00
