XCrySDen XSF file                       
   1.00000000000000     
     8.7557992935000009    0.0000000000000000    0.0000000000000000
    -4.3755486645000001    7.6221232039000002    0.0000000000000000
     0.0000000000000000    0.0000000000000000   37.2496528624999996
   O    Si   C    Fe   H 
    35    17     4     1    10
Selective dynamics
Direct
  0.9317198935601232  0.1526880651815395  0.1640777460522322   T   T   T
  0.7737902262763310  0.2858462359542623  0.2934505143566815   T   T   T
  0.0418376071615353  0.2293943509307495  0.2803897647537873   T   T   T
  0.8371353281804512  0.3961607867190493  0.1596276344960454   T   T   T
  0.7251366001808854  0.3512691777024723  0.2264143880797953   T   T   T
  0.0640034045949026  0.4038174056132195  0.1132490863952924   T   T   T
  0.5987065013672518  0.4845308375970381  0.1788975187083947   T   T   T
  0.1625164975807828  0.4792719049783944  0.1810385881472037   T   T   T
  0.5003074760443726  0.7212734480541798  0.1704468064962976   T   T   T
  0.0996413738081409  0.5530134168205360  0.2858454894124532   T   T   T
  0.3556399942797586  0.6693606564244432  0.2351969064548379   T   T   T
  0.6265655908386207  0.6260325102281864  0.1152017177042121   T   T   T
  0.8413182020732303  0.8187238924334577  0.1674520690568299   T   T   T
  0.2636977603043265  0.8181247478240229  0.1835877221339844   T   T   T
  0.1272044972626702  0.9741645916612868  0.2801733569440065   T   T   T
  0.3711254693841380  0.8747707922118927  0.2892725282858670   T   T   T
  0.1745949494535351  0.0630900263159722  0.1774944940315001   T   T   T
  0.9337575900480481  0.0088571375336322  0.2270711015501508   T   T   T
  0.2914390579798146  0.9716541707101316  0.1205321473538318   T   T   T
  0.5102370236954863  0.1489267242831415  0.1743505714803574   T   T   T
  0.4538691821843457  0.1992698378301606  0.2710864023365966   T   T   T
  0.3286906525716233  0.0763920316917710  0.3378117563645670   T   T   T
  0.0162176529857578  0.3582640448417543  0.3446852808408139   T   T   T
  0.8519818603517848  0.2834186672415200  0.0551449434329641   F   F   F
  0.0950442539208964  0.1962045167722835  0.0664311962619948   F   F   F
  0.6435243804665305  0.2873233535348021  0.0062649442898532   F   F   F
  0.5340368832223561  0.6406750283833489  0.0487701726162655   F   F   F
  0.7535487030588044  0.5234809111926211  0.0605608865222749   F   F   F
  0.1881938317753793  0.5236841354070023  0.0485992448488659   F   F   F
  0.4050355164736175  0.7543958351470721  0.0000624435349366   F   F   F
  0.8625582792101696  0.8600146999258627  0.0708431568407093   F   F   F
  0.1975223989154387  0.9665013019247226  0.0524192536023804   F   F   F
  0.4132527475511694  0.8496875249518681  0.0695734000412358   F   F   F
  0.9971027802074630  0.9977975685447547  0.0056476767924920   F   F   F
  0.5247863137266933  0.1916698222947204  0.0742682357393178   F   F   F
  0.6661584339544115  0.3442734328287028  0.1847077560193969   T   T   T
  0.6604405929391984  0.3446976176918014  0.2677310667471174   T   T   T
  0.9810180644328295  0.3532252942432137  0.3013680201612028   T   T   T
  0.9992870154423645  0.3571151400612896  0.1546375151200951   T   T   T
  0.3209074223834651  0.6722500924090929  0.1924074196058292   T   T   T
  0.6429290403716844  0.6644284883127877  0.1580070165751227   T   T   T
  0.3121812028349131  0.6740901948706987  0.2775336371122497   T   T   T
  0.9709713349313885  0.0115192475784599  0.1843868383229392   T   T   T
  0.3218308682094781  0.0289503432706019  0.2949834273898203   T   T   T
  0.3110766875868267  0.0012133477576059  0.1637037330672446   T   T   T
  0.9687875022145832  0.0223687645670321  0.2704425791661023   T   T   T
  0.6910891230530325  0.3223176711107172  0.0490122419862331   F   F   F
  0.0486349901715357  0.3525062411252051  0.0710278297026363   F   F   F
  0.6954463677419866  0.6630077820592390  0.0740326899200809   F   F   F
  0.3823500945200209  0.6925494194713409  0.0420185392271293   F   F   F
  0.3572396420070518  0.9956208784603575  0.0791641739826403   F   F   F
  0.0343190646981597  0.0047659948584169  0.0487926426243206   F   F   F
  0.4241848101460848  0.5804971482593231  0.3055169912681692   T   T   T
  0.6087583106522388  0.6362435894547629  0.2978937732126505   T   T   T
  0.6982093069832139  0.5589913169150966  0.2832605161777438   T   T   T
  0.8633393552478320  0.9213198985461344  0.3434756191969414   T   T   T
  0.8289713153939673  0.7934478657930761  0.3055012116286229   T   T   T
 -0.0096880130129764  0.2467579730561196  0.3551761122553240   T   T   T
  0.4279636707779039  0.0875062540930658  0.3513885842112871   T   T   T
  0.4111416981821929  0.6150942786397167  0.3333472051356930   T   T   T
  0.8486282533073508  0.6503701769772543  0.2784125209248402   T   T   T
  0.3425020967890500  0.4368536788006800  0.3029290451201703   T   T   T
  0.7617264817737164  0.9109453706116898  0.3623791743336802   T   T   T
 -0.0003773482668220  0.0068615724782155  0.3533459370531499   T   T   T
  0.5596981128695120  0.3181124123996497  0.9966964024348286   F   F   F
  0.3225111365496645  0.7871832873194649  0.9905822783424298   F   F   F
  0.8933420371027765  0.0014253246384754  0.9978161175675808   F   F   F
 
  0.00000000E+00  0.00000000E+00  0.00000000E+00
  0.00000000E+00  0.00000000E+00  0.00000000E+00
  0.00000000E+00  0.00000000E+00  0.00000000E+00
  0.00000000E+00  0.00000000E+00  0.00000000E+00
  0.00000000E+00  0.00000000E+00  0.00000000E+00
  0.00000000E+00  0.00000000E+00  0.00000000E+00
  0.00000000E+00  0.00000000E+00  0.00000000E+00
  0.00000000E+00  0.00000000E+00  0.00000000E+00
  0.00000000E+00  0.00000000E+00  0.00000000E+00
  0.00000000E+00  0.00000000E+00  0.00000000E+00
  0.00000000E+00  0.00000000E+00  0.00000000E+00
  0.00000000E+00  0.00000000E+00  0.00000000E+00
  0.00000000E+00  0.00000000E+00  0.00000000E+00
  0.00000000E+00  0.00000000E+00  0.00000000E+00
  0.00000000E+00  0.00000000E+00  0.00000000E+00
  0.00000000E+00  0.00000000E+00  0.00000000E+00
  0.00000000E+00  0.00000000E+00  0.00000000E+00
  0.00000000E+00  0.00000000E+00  0.00000000E+00
  0.00000000E+00  0.00000000E+00  0.00000000E+00
  0.00000000E+00  0.00000000E+00  0.00000000E+00
  0.00000000E+00  0.00000000E+00  0.00000000E+00
  0.00000000E+00  0.00000000E+00  0.00000000E+00
  0.00000000E+00  0.00000000E+00  0.00000000E+00
  0.00000000E+00  0.00000000E+00  0.00000000E+00
  0.00000000E+00  0.00000000E+00  0.00000000E+00
  0.00000000E+00  0.00000000E+00  0.00000000E+00
  0.00000000E+00  0.00000000E+00  0.00000000E+00
  0.00000000E+00  0.00000000E+00  0.00000000E+00
  0.00000000E+00  0.00000000E+00  0.00000000E+00
  0.00000000E+00  0.00000000E+00  0.00000000E+00
  0.00000000E+00  0.00000000E+00  0.00000000E+00
  0.00000000E+00  0.00000000E+00  0.00000000E+00
  0.00000000E+00  0.00000000E+00  0.00000000E+00
  0.00000000E+00  0.00000000E+00  0.00000000E+00
  0.00000000E+00  0.00000000E+00  0.00000000E+00
  0.00000000E+00  0.00000000E+00  0.00000000E+00
  0.00000000E+00  0.00000000E+00  0.00000000E+00
  0.00000000E+00  0.00000000E+00  0.00000000E+00
  0.00000000E+00  0.00000000E+00  0.00000000E+00
  0.00000000E+00  0.00000000E+00  0.00000000E+00
  0.00000000E+00  0.00000000E+00  0.00000000E+00
  0.00000000E+00  0.00000000E+00  0.00000000E+00
  0.00000000E+00  0.00000000E+00  0.00000000E+00
  0.00000000E+00  0.00000000E+00  0.00000000E+00
  0.00000000E+00  0.00000000E+00  0.00000000E+00
  0.00000000E+00  0.00000000E+00  0.00000000E+00
  0.00000000E+00  0.00000000E+00  0.00000000E+00
  0.00000000E+00  0.00000000E+00  0.00000000E+00
  0.00000000E+00  0.00000000E+00  0.00000000E+00
  0.00000000E+00  0.00000000E+00  0.00000000E+00
  0.00000000E+00  0.00000000E+00  0.00000000E+00
  0.00000000E+00  0.00000000E+00  0.00000000E+00
  0.00000000E+00  0.00000000E+00  0.00000000E+00
  0.00000000E+00  0.00000000E+00  0.00000000E+00
  0.00000000E+00  0.00000000E+00  0.00000000E+00
  0.00000000E+00  0.00000000E+00  0.00000000E+00
  0.00000000E+00  0.00000000E+00  0.00000000E+00
  0.00000000E+00  0.00000000E+00  0.00000000E+00
  0.00000000E+00  0.00000000E+00  0.00000000E+00
  0.00000000E+00  0.00000000E+00  0.00000000E+00
  0.00000000E+00  0.00000000E+00  0.00000000E+00
  0.00000000E+00  0.00000000E+00  0.00000000E+00
  0.00000000E+00  0.00000000E+00  0.00000000E+00
  0.00000000E+00  0.00000000E+00  0.00000000E+00
  0.00000000E+00  0.00000000E+00  0.00000000E+00
  0.00000000E+00  0.00000000E+00  0.00000000E+00
  0.00000000E+00  0.00000000E+00  0.00000000E+00
