XCrySDen XSF file                       
   1.00000000000000     
     8.7557992935000009    0.0000000000000000    0.0000000000000000
    -4.3755486645000001    7.6221232039000002    0.0000000000000000
     0.0000000000000000    0.0000000000000000   37.2496528624999996
   O    Si   C    Fe   H 
    35    17     4     1     9
Selective dynamics
Direct
  0.9377534825068765  0.1604582063410491  0.1645151464372016   T   T   T
  0.7748516622739846  0.2703571322610365  0.2927178423287042   T   T   T
  0.0374403210638588  0.2001042343018827  0.2823917908317103   T   T   T
  0.8436323939825239  0.4035538192895583  0.1582631105820000   T   T   T
  0.7357791645423688  0.3462513122047934  0.2248644574705682   T   T   T
  0.0702480002545139  0.4070937818865475  0.1131122419309322   T   T   T
  0.6111557520364880  0.4948404297177121  0.1801943177428713   T   T   T
  0.1682677046266799  0.4878576962146572  0.1812061041437786   T   T   T
  0.5068435078460134  0.7260820086999062  0.1705310505948964   T   T   T
  0.0965619426409607  0.5275537582444060  0.2808755470137357   T   T   T
  0.3672136467134920  0.6825738361633757  0.2354096715042597   T   T   T
  0.6238188969425222  0.6217581721975630  0.1150543958025068   T   T   T
  0.8480437090449395  0.8261562171927331  0.1641410479423398   T   T   T
  0.2726892199380388  0.8269244912701018  0.1837925113409351   T   T   T
  0.1155627893138272  0.9520706002562552  0.2713404242622123   T   T   T
  0.3411283245366357  0.8545193707788927  0.2937842477916082   T   T   T
  0.1762024199807728  0.0662775096496631  0.1785586231117531   T   T   T
  0.9132659070651918 -0.0038735136417202  0.2258306191469925   T   T   T
  0.2893321490163832  0.9728172185282216  0.1204549725253999   T   T   T
  0.5134318039493275  0.1584372303584117  0.1723332706769784   T   T   T
  0.4554701918642751  0.1658592008810809  0.2655974562431483   T   T   T
  0.2994114426098713  0.0904708538963253  0.3312593406981674   T   T   T
  0.0167783894276808  0.3515260182126191  0.3433930226760135   T   T   T
  0.8519818603517848  0.2834186672415200  0.0551449434329641   F   F   F
  0.0950442539208964  0.1962045167722835  0.0664311962619948   F   F   F
  0.6435243804665305  0.2873233535348021  0.0062649442898532   F   F   F
  0.5340368832223561  0.6406750283833489  0.0487701726162655   F   F   F
  0.7535487030588044  0.5234809111926211  0.0605608865222749   F   F   F
  0.1881938317753793  0.5236841354070023  0.0485992448488659   F   F   F
  0.4050355164736175  0.7543958351470721  0.0000624435349366   F   F   F
  0.8625582792101696  0.8600146999258627  0.0708431568407093   F   F   F
  0.1975223989154387  0.9665013019247226  0.0524192536023804   F   F   F
  0.4132527475511694  0.8496875249518681  0.0695734000412358   F   F   F
  0.9971027802074630  0.9977975685447547  0.0056476767924920   F   F   F
  0.5247863137266933  0.1916698222947204  0.0742682357393178   F   F   F
  0.6734518165357231  0.3494021629456896  0.1836291461705723   T   T   T
  0.6596198622037287  0.3192107979250481  0.2654784163540096   T   T   T
  0.9828220636398324  0.3350135416321438  0.2996970076983368   T   T   T
  0.0062133829072545  0.3640275891616955  0.1545613127180854   T   T   T
  0.3284816273096445  0.6802940260649325  0.1924917421506495   T   T   T
  0.6482289891701288  0.6685741258568516  0.1575335562653739   T   T   T
  0.3075854968582697  0.6694715767326477  0.2771889138545319   T   T   T
  0.9706805544363684  0.0133052475518955  0.1840317352468128   T   T   T
  0.3016979205653323  0.0160173373622724  0.2907250449276215   T   T   T
  0.3130744834611432  0.0070182905846711  0.1635354173789203   T   T   T
  0.9499926922185610 -0.0075371485548562  0.2693620611530639   T   T   T
  0.6910891230530325  0.3223176711107172  0.0490122419862331   F   F   F
  0.0486349901715357  0.3525062411252051  0.0710278297026363   F   F   F
  0.6954463677419866  0.6630077820592390  0.0740326899200809   F   F   F
  0.3823500945200209  0.6925494194713409  0.0420185392271293   F   F   F
  0.3572396420070518  0.9956208784603575  0.0791641739826403   F   F   F
  0.0343190646981597  0.0047659948584169  0.0487926426243206   F   F   F
  0.4431282588703135  0.6139829238449001  0.3066507999215594   T   T   T
  0.5349267587404701  0.5342709410326950  0.2954169310766890   T   T   T
  0.6660514866610203  0.5195928052015244  0.2826110628297133   T   T   T
  0.8257756610037281 -0.1010546556093795  0.3368720027081272   T   T   T
  0.7158292776747582  0.7757335333306725  0.2996431280020201   T   T   T
  0.0775880761305363  0.2920033303811272  0.3520445842605694   T   T   T
  0.3881219296383940  0.0965083235765010  0.3476292487151345   T   T   T
  0.4072820401641076  0.6014357035438445  0.3351515053686904   T   T   T
  0.8964053819775203  0.8546406705431440  0.3546636254956738   T   T   T
  0.8073114201061627  0.6474953852992428  0.2841278220672868   T   T   T
  0.8245030041077380  0.0168435794969186  0.3465477886239314   T   T   T
  0.5596981128695120  0.3181124123996497  0.9966964024348286   F   F   F
  0.3225111365496645  0.7871832873194649  0.9905822783424298   F   F   F
  0.8933420371027765  0.0014253246384754  0.9978161175675808   F   F   F
 
  0.00000000E+00  0.00000000E+00  0.00000000E+00
  0.00000000E+00  0.00000000E+00  0.00000000E+00
  0.00000000E+00  0.00000000E+00  0.00000000E+00
  0.00000000E+00  0.00000000E+00  0.00000000E+00
  0.00000000E+00  0.00000000E+00  0.00000000E+00
  0.00000000E+00  0.00000000E+00  0.00000000E+00
  0.00000000E+00  0.00000000E+00  0.00000000E+00
  0.00000000E+00  0.00000000E+00  0.00000000E+00
  0.00000000E+00  0.00000000E+00  0.00000000E+00
  0.00000000E+00  0.00000000E+00  0.00000000E+00
  0.00000000E+00  0.00000000E+00  0.00000000E+00
  0.00000000E+00  0.00000000E+00  0.00000000E+00
  0.00000000E+00  0.00000000E+00  0.00000000E+00
  0.00000000E+00  0.00000000E+00  0.00000000E+00
  0.00000000E+00  0.00000000E+00  0.00000000E+00
  0.00000000E+00  0.00000000E+00  0.00000000E+00
  0.00000000E+00  0.00000000E+00  0.00000000E+00
  0.00000000E+00  0.00000000E+00  0.00000000E+00
  0.00000000E+00  0.00000000E+00  0.00000000E+00
  0.00000000E+00  0.00000000E+00  0.00000000E+00
  0.00000000E+00  0.00000000E+00  0.00000000E+00
  0.00000000E+00  0.00000000E+00  0.00000000E+00
  0.00000000E+00  0.00000000E+00  0.00000000E+00
  0.00000000E+00  0.00000000E+00  0.00000000E+00
  0.00000000E+00  0.00000000E+00  0.00000000E+00
  0.00000000E+00  0.00000000E+00  0.00000000E+00
  0.00000000E+00  0.00000000E+00  0.00000000E+00
  0.00000000E+00  0.00000000E+00  0.00000000E+00
  0.00000000E+00  0.00000000E+00  0.00000000E+00
  0.00000000E+00  0.00000000E+00  0.00000000E+00
  0.00000000E+00  0.00000000E+00  0.00000000E+00
  0.00000000E+00  0.00000000E+00  0.00000000E+00
  0.00000000E+00  0.00000000E+00  0.00000000E+00
  0.00000000E+00  0.00000000E+00  0.00000000E+00
  0.00000000E+00  0.00000000E+00  0.00000000E+00
  0.00000000E+00  0.00000000E+00  0.00000000E+00
  0.00000000E+00  0.00000000E+00  0.00000000E+00
  0.00000000E+00  0.00000000E+00  0.00000000E+00
  0.00000000E+00  0.00000000E+00  0.00000000E+00
  0.00000000E+00  0.00000000E+00  0.00000000E+00
  0.00000000E+00  0.00000000E+00  0.00000000E+00
  0.00000000E+00  0.00000000E+00  0.00000000E+00
  0.00000000E+00  0.00000000E+00  0.00000000E+00
  0.00000000E+00  0.00000000E+00  0.00000000E+00
  0.00000000E+00  0.00000000E+00  0.00000000E+00
  0.00000000E+00  0.00000000E+00  0.00000000E+00
  0.00000000E+00  0.00000000E+00  0.00000000E+00
  0.00000000E+00  0.00000000E+00  0.00000000E+00
  0.00000000E+00  0.00000000E+00  0.00000000E+00
  0.00000000E+00  0.00000000E+00  0.00000000E+00
  0.00000000E+00  0.00000000E+00  0.00000000E+00
  0.00000000E+00  0.00000000E+00  0.00000000E+00
  0.00000000E+00  0.00000000E+00  0.00000000E+00
  0.00000000E+00  0.00000000E+00  0.00000000E+00
  0.00000000E+00  0.00000000E+00  0.00000000E+00
  0.00000000E+00  0.00000000E+00  0.00000000E+00
  0.00000000E+00  0.00000000E+00  0.00000000E+00
  0.00000000E+00  0.00000000E+00  0.00000000E+00
  0.00000000E+00  0.00000000E+00  0.00000000E+00
  0.00000000E+00  0.00000000E+00  0.00000000E+00
  0.00000000E+00  0.00000000E+00  0.00000000E+00
  0.00000000E+00  0.00000000E+00  0.00000000E+00
  0.00000000E+00  0.00000000E+00  0.00000000E+00
  0.00000000E+00  0.00000000E+00  0.00000000E+00
  0.00000000E+00  0.00000000E+00  0.00000000E+00
  0.00000000E+00  0.00000000E+00  0.00000000E+00
