XCrySDen XSF file                       
   1.00000000000000     
     8.7557992935000009    0.0000000000000000    0.0000000000000000
    -4.3755486645000001    7.6221232039000002    0.0000000000000000
     0.0000000000000000    0.0000000000000000   37.2496528624999996
   O    Si   C    Fe   H 
    35    17     4     1    10
Selective dynamics
Direct
  0.9441505325260505  0.1719881621604184  0.1705349959939751   T   T   T
  0.8076413351382242  0.2295097253770952  0.2827679889762092   T   T   T
  0.0422733095528807  0.1268110426791330  0.2888463266932604   T   T   T
  0.8565894529212059  0.4185931792596591  0.1650064016128615   T   T   T
  0.7121001794050962  0.3674680378143849  0.2302111241306251   T   T   T
  0.0541908798185763  0.3962281060087634  0.1137296769465304   T   T   T
  0.6203094325943438  0.5145066653523699  0.1808876384929957   T   T   T
  0.1886429601429964  0.5030747313940112  0.1783417689596684   T   T   T
  0.5230429578063737  0.7507890895664764  0.1673050674323851   T   T   T
  0.1469373725242135  0.4651453431046820  0.2764936809411455   T   T   T
  0.3897107522770024  0.6937827942489510  0.2322765005773544   T   T   T
  0.6250417156194954  0.6198970649082430  0.1148392503369886   T   T   T
  0.8604230218974158  0.8412925474410666  0.1605418925133002   T   T   T
  0.2849289485144779  0.8413749091356136  0.1841005890795679   T   T   T
  0.1292911232589402  0.8928005622790912  0.2702262573189755   T   T   T
  0.3523830687996592  0.7955915323101164  0.2971205779876815   T   T   T
  0.1884021109796963  0.0812926829062410  0.1773768445706280   T   T   T
  0.9305426794671713  0.9708582581376947  0.2261797494497498   T   T   T
  0.2969795999342285  0.9784406572001222  0.1207889438606180   T   T   T
  0.5242407754350407  0.1760613007024668  0.1728704386580356   T   T   T
  0.4699208348431904  0.1157847965031247  0.2692303178371417   T   T   T
  0.3021778630634658  0.0240833483264720  0.3330873473967004   T   T   T
  0.0268803259993472  0.3318778608038009  0.3401969134178830   T   T   T
  0.8519818603517848  0.2834186672415200  0.0551449434329641   F   F   F
  0.0950442539208964  0.1962045167722835  0.0664311962619948   F   F   F
  0.6435243804665305  0.2873233535348021  0.0062649442898532   F   F   F
  0.5340368832223561  0.6406750283833489  0.0487701726162655   F   F   F
  0.7535487030588044  0.5234809111926211  0.0605608865222749   F   F   F
  0.1881938317753793  0.5236841354070023  0.0485992448488659   F   F   F
  0.4050355164736175  0.7543958351470721  0.0000624435349366   F   F   F
  0.8625582792101696  0.8600146999258627  0.0708431568407093   F   F   F
  0.1975223989154387  0.9665013019247226  0.0524192536023804   F   F   F
  0.4132527475511694  0.8496875249518681  0.0695734000412358   F   F   F
  0.9971027802074630  0.9977975685447547  0.0056476767924920   F   F   F
  0.5247863137266933  0.1916698222947204  0.0742682357393178   F   F   F
  0.6769019592794165  0.3661339484766123  0.1873180370494340   T   T   T
  0.6662284385363029  0.2908724038072455  0.2709388803634692   T   T   T
  0.0049591377703835  0.2870319651845451  0.2968779775341702   T   T   T
  0.0106265252700700  0.3709377515626857  0.1565454314444641   T   T   T
  0.3447324530227378  0.6958151496644069  0.1902008780622362   T   T   T
  0.6585369743981235  0.6825222154820135  0.1563557033353591   T   T   T
  0.3453820150379499  0.6344086534056707  0.2738419930282675   T   T   T
  0.9816542167446076  0.0173314366970477  0.1840087221509249   T   T   T
  0.3133676433422782  0.9579933900155712  0.2921238321518034   T   T   T
  0.3260730142539986  0.0208371360248386  0.1635491225763776   T   T   T
  0.9654116220568075  0.9364624835592456  0.2679442789892334   T   T   T
  0.6910891230530325  0.3223176711107172  0.0490122419862331   F   F   F
  0.0486349901715357  0.3525062411252051  0.0710278297026363   F   F   F
  0.6954463677419866  0.6630077820592390  0.0740326899200809   F   F   F
  0.3823500945200209  0.6925494194713409  0.0420185392271293   F   F   F
  0.3572396420070518  0.9956208784603575  0.0791641739826403   F   F   F
  0.0343190646981597  0.0047659948584169  0.0487926426243206   F   F   F
  0.5082733256037375  0.5773521198421723  0.2903483123503776   T   T   T
  0.5083458172786135  0.4499548904737536  0.3120107305705750   T   T   T
  0.6666155812064720  0.4371964690255317  0.3069630411374392   T   T   T
  0.7713624721379102  0.8434454798863654  0.3422836378394069   T   T   T
  0.7424854778123093  0.6925875819050941  0.3012228044179308   T   T   T
  0.9823079703992748  0.2301533452873331  0.3557153363245623   T   T   T
  0.3093071548575116  0.9511059562643612  0.3517129936919584   T   T   T
  0.4202551983794841  0.3912570599029322  0.3352147586157635   T   T   T
  0.6874845807687097  0.7561212260195612  0.3638509459071825   T   T   T
  0.7192721047521060  0.4110335842874804  0.3316897144189592   T   T   T
  0.7295007382912253  0.9390465508610035  0.3358356701699368   T   T   T
  0.9113701869819510  0.9095591478356684  0.3500417858019195   T   T   T
  0.5596981128695120  0.3181124123996497  0.9966964024348286   F   F   F
  0.3225111365496645  0.7871832873194649  0.9905822783424298   F   F   F
  0.8933420371027765  0.0014253246384754  0.9978161175675808   F   F   F
 
  0.00000000E+00  0.00000000E+00  0.00000000E+00
  0.00000000E+00  0.00000000E+00  0.00000000E+00
  0.00000000E+00  0.00000000E+00  0.00000000E+00
  0.00000000E+00  0.00000000E+00  0.00000000E+00
  0.00000000E+00  0.00000000E+00  0.00000000E+00
  0.00000000E+00  0.00000000E+00  0.00000000E+00
  0.00000000E+00  0.00000000E+00  0.00000000E+00
  0.00000000E+00  0.00000000E+00  0.00000000E+00
  0.00000000E+00  0.00000000E+00  0.00000000E+00
  0.00000000E+00  0.00000000E+00  0.00000000E+00
  0.00000000E+00  0.00000000E+00  0.00000000E+00
  0.00000000E+00  0.00000000E+00  0.00000000E+00
  0.00000000E+00  0.00000000E+00  0.00000000E+00
  0.00000000E+00  0.00000000E+00  0.00000000E+00
  0.00000000E+00  0.00000000E+00  0.00000000E+00
  0.00000000E+00  0.00000000E+00  0.00000000E+00
  0.00000000E+00  0.00000000E+00  0.00000000E+00
  0.00000000E+00  0.00000000E+00  0.00000000E+00
  0.00000000E+00  0.00000000E+00  0.00000000E+00
  0.00000000E+00  0.00000000E+00  0.00000000E+00
  0.00000000E+00  0.00000000E+00  0.00000000E+00
  0.00000000E+00  0.00000000E+00  0.00000000E+00
  0.00000000E+00  0.00000000E+00  0.00000000E+00
  0.00000000E+00  0.00000000E+00  0.00000000E+00
  0.00000000E+00  0.00000000E+00  0.00000000E+00
  0.00000000E+00  0.00000000E+00  0.00000000E+00
  0.00000000E+00  0.00000000E+00  0.00000000E+00
  0.00000000E+00  0.00000000E+00  0.00000000E+00
  0.00000000E+00  0.00000000E+00  0.00000000E+00
  0.00000000E+00  0.00000000E+00  0.00000000E+00
  0.00000000E+00  0.00000000E+00  0.00000000E+00
  0.00000000E+00  0.00000000E+00  0.00000000E+00
  0.00000000E+00  0.00000000E+00  0.00000000E+00
  0.00000000E+00  0.00000000E+00  0.00000000E+00
  0.00000000E+00  0.00000000E+00  0.00000000E+00
  0.00000000E+00  0.00000000E+00  0.00000000E+00
  0.00000000E+00  0.00000000E+00  0.00000000E+00
  0.00000000E+00  0.00000000E+00  0.00000000E+00
  0.00000000E+00  0.00000000E+00  0.00000000E+00
  0.00000000E+00  0.00000000E+00  0.00000000E+00
  0.00000000E+00  0.00000000E+00  0.00000000E+00
  0.00000000E+00  0.00000000E+00  0.00000000E+00
  0.00000000E+00  0.00000000E+00  0.00000000E+00
  0.00000000E+00  0.00000000E+00  0.00000000E+00
  0.00000000E+00  0.00000000E+00  0.00000000E+00
  0.00000000E+00  0.00000000E+00  0.00000000E+00
  0.00000000E+00  0.00000000E+00  0.00000000E+00
  0.00000000E+00  0.00000000E+00  0.00000000E+00
  0.00000000E+00  0.00000000E+00  0.00000000E+00
  0.00000000E+00  0.00000000E+00  0.00000000E+00
  0.00000000E+00  0.00000000E+00  0.00000000E+00
  0.00000000E+00  0.00000000E+00  0.00000000E+00
  0.00000000E+00  0.00000000E+00  0.00000000E+00
  0.00000000E+00  0.00000000E+00  0.00000000E+00
  0.00000000E+00  0.00000000E+00  0.00000000E+00
  0.00000000E+00  0.00000000E+00  0.00000000E+00
  0.00000000E+00  0.00000000E+00  0.00000000E+00
  0.00000000E+00  0.00000000E+00  0.00000000E+00
  0.00000000E+00  0.00000000E+00  0.00000000E+00
  0.00000000E+00  0.00000000E+00  0.00000000E+00
  0.00000000E+00  0.00000000E+00  0.00000000E+00
  0.00000000E+00  0.00000000E+00  0.00000000E+00
  0.00000000E+00  0.00000000E+00  0.00000000E+00
  0.00000000E+00  0.00000000E+00  0.00000000E+00
  0.00000000E+00  0.00000000E+00  0.00000000E+00
  0.00000000E+00  0.00000000E+00  0.00000000E+00
  0.00000000E+00  0.00000000E+00  0.00000000E+00
