XCrySDen XSF file                       
   1.00000000000000     
     8.7557992935000009    0.0000000000000000    0.0000000000000000
    -4.3755486645000001    7.6221232039000002    0.0000000000000000
     0.0000000000000000    0.0000000000000000   37.2496528624999996
   O    Si   C    Fe   H 
    35    17     4     1     9
Selective dynamics
Direct
  0.9404222255376483  0.1615585416213074  0.1644337516633934   T   T   T
  0.7694876896744738  0.2722780939408452  0.2931491586769072   T   T   T
  0.0179607886340576  0.1840097695877909  0.2837449781799065   T   T   T
  0.8459853884864825  0.4045393985553862  0.1584578008387076   T   T   T
  0.7373408226178421  0.3489723070329971  0.2249953630022872   T   T   T
  0.0712903292277598  0.4077217331315840  0.1130859926027441   T   T   T
  0.6126355071639117  0.4953758181890940  0.1799215705118379   T   T   T
  0.1712071933240411  0.4888813266042140  0.1811773784087045   T   T   T
  0.5101792567662429  0.7278861032373827  0.1712056667811160   T   T   T
  0.0931719815216833  0.5196960060227469  0.2803537700920947   T   T   T
  0.3678060794112605  0.6814242874884795  0.2360147560487391   T   T   T
  0.6220504277912945  0.6215056010254650  0.1149289531222997   T   T   T
  0.8501482727414514  0.8265791774807726  0.1630351829283387   T   T   T
  0.2758305863288257  0.8280132491232648  0.1841614001762981   T   T   T
  0.1167778877792923  0.9508241353393376  0.2715325731855957   T   T   T
  0.3385515035676619  0.8510286046974699  0.2938052626171417   T   T   T
  0.1779895194014395  0.0659782523610406  0.1786000889331235   T   T   T
  0.9118133295514120  0.9919167212722160  0.2250313022532695   T   T   T
  0.2903592983734882  0.9724407041257945  0.1205640744658472   T   T   T
  0.5158416798471944  0.1595305972720668  0.1722367275033570   T   T   T
  0.4570532304687119  0.1639380347170040  0.2649089161151926   T   T   T
  0.3009201748213584  0.0907612571622376  0.3308323676901563   T   T   T
  0.0201233394341218  0.3574901147429252  0.3432301199575610   T   T   T
  0.8519818603517848  0.2834186672415200  0.0551449434329641   F   F   F
  0.0950442539208964  0.1962045167722835  0.0664311962619948   F   F   F
  0.6435243804665305  0.2873233535348021  0.0062649442898532   F   F   F
  0.5340368832223561  0.6406750283833489  0.0487701726162655   F   F   F
  0.7535487030588044  0.5234809111926211  0.0605608865222749   F   F   F
  0.1881938317753793  0.5236841354070023  0.0485992448488659   F   F   F
  0.4050355164736175  0.7543958351470721  0.0000624435349366   F   F   F
  0.8625582792101696  0.8600146999258627  0.0708431568407093   F   F   F
  0.1975223989154387  0.9665013019247226  0.0524192536023804   F   F   F
  0.4132527475511694  0.8496875249518681  0.0695734000412358   F   F   F
  0.9971027802074630  0.9977975685447547  0.0056476767924920   F   F   F
  0.5247863137266933  0.1916698222947204  0.0742682357393178   F   F   F
  0.6755885174207426  0.3505935180152036  0.1837928234356098   T   T   T
  0.6595136346788218  0.3266981300423856  0.2654927729017022   T   T   T
  0.9756665212733817  0.3303215951665341  0.3000437438759242   T   T   T
  0.0085493691792842  0.3653944297219751  0.1546117972560843   T   T   T
  0.3308794695635315  0.6808506750211544  0.1929868393233671   T   T   T
  0.6491958922398852  0.6688008125409121  0.1573726453250541   T   T   T
  0.3030135906285958  0.6644633618239812  0.2776683370509849   T   T   T
  0.9722382901636619  0.0125653678383137  0.1832182117845292   T   T   T
  0.3050543623935688  0.0163507140835385  0.2904569239109320   T   T   T
  0.3157544183365210  0.0073837954496215  0.1636282634992641   T   T   T
  0.9493664778032885  0.9843375656609199  0.2679732281025168   T   T   T
  0.6910891230530325  0.3223176711107172  0.0490122419862331   F   F   F
  0.0486349901715357  0.3525062411252051  0.0710278297026363   F   F   F
  0.6954463677419866  0.6630077820592390  0.0740326899200809   F   F   F
  0.3823500945200209  0.6925494194713409  0.0420185392271293   F   F   F
  0.3572396420070518  0.9956208784603575  0.0791641739826403   F   F   F
  0.0343190646981597  0.0047659948584169  0.0487926426243206   F   F   F
  0.4323388937268391  0.6033828972095678  0.3075338504892556   T   T   T
  0.5207814515749373  0.5234015452740686  0.2943527104838990   T   T   T
  0.6573130900496931  0.5222073570296403  0.2816499358493983   T   T   T
  0.7971854281489044  0.9038942092826168  0.3457149042166047   T   T   T
  0.7133974546052283  0.7633135796892566  0.3017213282564166   T   T   T
  0.0140279211944964  0.2571068615821828  0.3553571077409428   T   T   T
  0.3961217647159275  0.1097361493100180  0.3467569299128446   T   T   T
  0.3887868471540927  0.5810060248205030  0.3355697722087790   T   T   T
  0.7496917020368387  0.9980701679628693  0.3475528641483580   T   T   T
  0.9411265141836118  0.9683117275789073  0.3486243363086884   T   T   T
  0.7345565237394981  0.8049475000140405  0.3671367705127496   T   T   T
  0.5596981128695120  0.3181124123996497  0.9966964024348286   F   F   F
  0.3225111365496645  0.7871832873194649  0.9905822783424298   F   F   F
  0.8933420371027765  0.0014253246384754  0.9978161175675808   F   F   F
 
  0.00000000E+00  0.00000000E+00  0.00000000E+00
  0.00000000E+00  0.00000000E+00  0.00000000E+00
  0.00000000E+00  0.00000000E+00  0.00000000E+00
  0.00000000E+00  0.00000000E+00  0.00000000E+00
  0.00000000E+00  0.00000000E+00  0.00000000E+00
  0.00000000E+00  0.00000000E+00  0.00000000E+00
  0.00000000E+00  0.00000000E+00  0.00000000E+00
  0.00000000E+00  0.00000000E+00  0.00000000E+00
  0.00000000E+00  0.00000000E+00  0.00000000E+00
  0.00000000E+00  0.00000000E+00  0.00000000E+00
  0.00000000E+00  0.00000000E+00  0.00000000E+00
  0.00000000E+00  0.00000000E+00  0.00000000E+00
  0.00000000E+00  0.00000000E+00  0.00000000E+00
  0.00000000E+00  0.00000000E+00  0.00000000E+00
  0.00000000E+00  0.00000000E+00  0.00000000E+00
  0.00000000E+00  0.00000000E+00  0.00000000E+00
  0.00000000E+00  0.00000000E+00  0.00000000E+00
  0.00000000E+00  0.00000000E+00  0.00000000E+00
  0.00000000E+00  0.00000000E+00  0.00000000E+00
  0.00000000E+00  0.00000000E+00  0.00000000E+00
  0.00000000E+00  0.00000000E+00  0.00000000E+00
  0.00000000E+00  0.00000000E+00  0.00000000E+00
  0.00000000E+00  0.00000000E+00  0.00000000E+00
  0.00000000E+00  0.00000000E+00  0.00000000E+00
  0.00000000E+00  0.00000000E+00  0.00000000E+00
  0.00000000E+00  0.00000000E+00  0.00000000E+00
  0.00000000E+00  0.00000000E+00  0.00000000E+00
  0.00000000E+00  0.00000000E+00  0.00000000E+00
  0.00000000E+00  0.00000000E+00  0.00000000E+00
  0.00000000E+00  0.00000000E+00  0.00000000E+00
  0.00000000E+00  0.00000000E+00  0.00000000E+00
  0.00000000E+00  0.00000000E+00  0.00000000E+00
  0.00000000E+00  0.00000000E+00  0.00000000E+00
  0.00000000E+00  0.00000000E+00  0.00000000E+00
  0.00000000E+00  0.00000000E+00  0.00000000E+00
  0.00000000E+00  0.00000000E+00  0.00000000E+00
  0.00000000E+00  0.00000000E+00  0.00000000E+00
  0.00000000E+00  0.00000000E+00  0.00000000E+00
  0.00000000E+00  0.00000000E+00  0.00000000E+00
  0.00000000E+00  0.00000000E+00  0.00000000E+00
  0.00000000E+00  0.00000000E+00  0.00000000E+00
  0.00000000E+00  0.00000000E+00  0.00000000E+00
  0.00000000E+00  0.00000000E+00  0.00000000E+00
  0.00000000E+00  0.00000000E+00  0.00000000E+00
  0.00000000E+00  0.00000000E+00  0.00000000E+00
  0.00000000E+00  0.00000000E+00  0.00000000E+00
  0.00000000E+00  0.00000000E+00  0.00000000E+00
  0.00000000E+00  0.00000000E+00  0.00000000E+00
  0.00000000E+00  0.00000000E+00  0.00000000E+00
  0.00000000E+00  0.00000000E+00  0.00000000E+00
  0.00000000E+00  0.00000000E+00  0.00000000E+00
  0.00000000E+00  0.00000000E+00  0.00000000E+00
  0.00000000E+00  0.00000000E+00  0.00000000E+00
  0.00000000E+00  0.00000000E+00  0.00000000E+00
  0.00000000E+00  0.00000000E+00  0.00000000E+00
  0.00000000E+00  0.00000000E+00  0.00000000E+00
  0.00000000E+00  0.00000000E+00  0.00000000E+00
  0.00000000E+00  0.00000000E+00  0.00000000E+00
  0.00000000E+00  0.00000000E+00  0.00000000E+00
  0.00000000E+00  0.00000000E+00  0.00000000E+00
  0.00000000E+00  0.00000000E+00  0.00000000E+00
  0.00000000E+00  0.00000000E+00  0.00000000E+00
  0.00000000E+00  0.00000000E+00  0.00000000E+00
  0.00000000E+00  0.00000000E+00  0.00000000E+00
  0.00000000E+00  0.00000000E+00  0.00000000E+00
  0.00000000E+00  0.00000000E+00  0.00000000E+00
