XCrySDen XSF file                       
   1.00000000000000     
     8.7557992935000009    0.0000000000000000    0.0000000000000000
    -4.3755486645000001    7.6221232039000002    0.0000000000000000
     0.0000000000000000    0.0000000000000000   37.2496528624999996
   O    Si   C    Fe   H 
    35    17     4     1     6
Selective dynamics
Direct
  0.9450511837661555  0.1679798098896141  0.1680808504664969   T   T   T
  0.7987754487550288  0.2082935848307904  0.2841097022664917   T   T   T
  0.0797196176651727  0.1665298896534405  0.2799933350816236   T   T   T
  0.8570439148958989  0.4144774397943421  0.1640833682461470   T   T   T
  0.7257089984162923  0.3667539764653987  0.2300397362531571   T   T   T
  0.0594277245083760  0.4008842692096002  0.1134526499498806   T   T   T
  0.6236365285137877  0.5105246478629329  0.1810156230495192   T   T   T
  0.1884318094542267  0.4976678002317411  0.1789537283397571   T   T   T
  0.5244487655982120  0.7445226065314136  0.1695659224398153   T   T   T
  0.1093463964849625  0.4805663728417977  0.2764009558578852   T   T   T
  0.3793999002067113  0.6881737257137578  0.2340449307067181   T   T   T
  0.6208278036563400  0.6173011294125097  0.1147095306549536   T   T   T
  0.8607538404074002  0.8363397491565607  0.1588366700181121   T   T   T
  0.2851432102540248  0.8361079843407241  0.1836041565017480   T   T   T
  0.1371533542987664  0.9059780671344150  0.2633106232780114   T   T   T
  0.3339297772564886  0.7976791487417511  0.2983246072674013   T   T   T
  0.1868688797084415  0.0752405251207692  0.1779455922541822   T   T   T
  0.9153754681393537  0.9639097467474728  0.2239625543898889   T   T   T
  0.2987029754180956  0.9795820338159730  0.1209352924209684   T   T   T
  0.5242118306372259  0.1719804608972658  0.1739991612657208   T   T   T
  0.4735983427582878  0.1024203666117868  0.2641435936106135   T   T   T
  0.2984827658960614  0.0493126254447526  0.3273135343366520   T   T   T
  0.0284947113079765  0.3097440032571409  0.3392569847433115   T   T   T
  0.8519818603517848  0.2834186672415200  0.0551449434329641   F   F   F
  0.0950442539208964  0.1962045167722835  0.0664311962619948   F   F   F
  0.6435243804665305  0.2873233535348021  0.0062649442898532   F   F   F
  0.5340368832223561  0.6406750283833489  0.0487701726162655   F   F   F
  0.7535487030588044  0.5234809111926211  0.0605608865222749   F   F   F
  0.1881938317753793  0.5236841354070023  0.0485992448488659   F   F   F
  0.4050355164736175  0.7543958351470721  0.0000624435349366   F   F   F
  0.8625582792101696  0.8600146999258627  0.0708431568407093   F   F   F
  0.1975223989154387  0.9665013019247226  0.0524192536023804   F   F   F
  0.4132527475511694  0.8496875249518681  0.0695734000412358   F   F   F
  0.9971027802074630  0.9977975685447547  0.0056476767924920   F   F   F
  0.5247863137266933  0.1916698222947204  0.0742682357393178   F   F   F
  0.6805935336098704  0.3625356315275690  0.1874070685968559   T   T   T
  0.6671016528377072  0.2754640173778881  0.2694103741798677   T   T   T
  0.0040015679847340  0.2893391601888384  0.2955629834711965   T   T   T
  0.0130012099323030  0.3695863333857550  0.1559988977971253   T   T   T
  0.3433175061085605  0.6906186948312932  0.1913514456214140   T   T   T
  0.6578694714141967  0.6771843812767959  0.1564221819077752   T   T   T
  0.3160338986853317  0.6326600371401074  0.2752660464298913   T   T   T
  0.9791535900002803  0.0126469256199941  0.1822705881163293   T   T   T
  0.3099994173309425  0.9645984710981752  0.2885646798250507   T   T   T
  0.3266046315460648  0.0173615406668762  0.1638882353325552   T   T   T
  0.9880203218111764  0.9660153332442432  0.2642653597434668   T   T   T
  0.6910891230530325  0.3223176711107172  0.0490122419862331   F   F   F
  0.0486349901715357  0.3525062411252051  0.0710278297026363   F   F   F
  0.6954463677419866  0.6630077820592390  0.0740326899200809   F   F   F
  0.3823500945200209  0.6925494194713409  0.0420185392271293   F   F   F
  0.3572396420070518  0.9956208784603575  0.0791641739826403   F   F   F
  0.0343190646981597  0.0047659948584169  0.0487926426243206   F   F   F
  0.4563923856042777  0.5610134229849688  0.2963626470844163   T   T   T
  0.4977383204716092  0.4392276341720944  0.2980151240786753   T   T   T
  0.6322542500571119  0.4023978518978114  0.3054190033822752   T   T   T
  0.8293467176076683  0.8274253900308476  0.2988721481591318   T   T   T
  0.6832043033087217  0.6502146175909166  0.3184598330298013   T   T   T
  0.0503630916289179  0.2235666957804613  0.3507295437401913   T   T   T
  0.2639320415745469  0.9660905259097505  0.3468995037519195   T   T   T
  0.6214116200927937  0.3370862953498258  0.3313485014830460   T   T   T
  0.5596981128695120  0.3181124123996497  0.9966964024348286   F   F   F
  0.3225111365496645  0.7871832873194649  0.9905822783424298   F   F   F
  0.8933420371027765  0.0014253246384754  0.9978161175675808   F   F   F
 
  0.00000000E+00  0.00000000E+00  0.00000000E+00
  0.00000000E+00  0.00000000E+00  0.00000000E+00
  0.00000000E+00  0.00000000E+00  0.00000000E+00
  0.00000000E+00  0.00000000E+00  0.00000000E+00
  0.00000000E+00  0.00000000E+00  0.00000000E+00
  0.00000000E+00  0.00000000E+00  0.00000000E+00
  0.00000000E+00  0.00000000E+00  0.00000000E+00
  0.00000000E+00  0.00000000E+00  0.00000000E+00
  0.00000000E+00  0.00000000E+00  0.00000000E+00
  0.00000000E+00  0.00000000E+00  0.00000000E+00
  0.00000000E+00  0.00000000E+00  0.00000000E+00
  0.00000000E+00  0.00000000E+00  0.00000000E+00
  0.00000000E+00  0.00000000E+00  0.00000000E+00
  0.00000000E+00  0.00000000E+00  0.00000000E+00
  0.00000000E+00  0.00000000E+00  0.00000000E+00
  0.00000000E+00  0.00000000E+00  0.00000000E+00
  0.00000000E+00  0.00000000E+00  0.00000000E+00
  0.00000000E+00  0.00000000E+00  0.00000000E+00
  0.00000000E+00  0.00000000E+00  0.00000000E+00
  0.00000000E+00  0.00000000E+00  0.00000000E+00
  0.00000000E+00  0.00000000E+00  0.00000000E+00
  0.00000000E+00  0.00000000E+00  0.00000000E+00
  0.00000000E+00  0.00000000E+00  0.00000000E+00
  0.00000000E+00  0.00000000E+00  0.00000000E+00
  0.00000000E+00  0.00000000E+00  0.00000000E+00
  0.00000000E+00  0.00000000E+00  0.00000000E+00
  0.00000000E+00  0.00000000E+00  0.00000000E+00
  0.00000000E+00  0.00000000E+00  0.00000000E+00
  0.00000000E+00  0.00000000E+00  0.00000000E+00
  0.00000000E+00  0.00000000E+00  0.00000000E+00
  0.00000000E+00  0.00000000E+00  0.00000000E+00
  0.00000000E+00  0.00000000E+00  0.00000000E+00
  0.00000000E+00  0.00000000E+00  0.00000000E+00
  0.00000000E+00  0.00000000E+00  0.00000000E+00
  0.00000000E+00  0.00000000E+00  0.00000000E+00
  0.00000000E+00  0.00000000E+00  0.00000000E+00
  0.00000000E+00  0.00000000E+00  0.00000000E+00
  0.00000000E+00  0.00000000E+00  0.00000000E+00
  0.00000000E+00  0.00000000E+00  0.00000000E+00
  0.00000000E+00  0.00000000E+00  0.00000000E+00
  0.00000000E+00  0.00000000E+00  0.00000000E+00
  0.00000000E+00  0.00000000E+00  0.00000000E+00
  0.00000000E+00  0.00000000E+00  0.00000000E+00
  0.00000000E+00  0.00000000E+00  0.00000000E+00
  0.00000000E+00  0.00000000E+00  0.00000000E+00
  0.00000000E+00  0.00000000E+00  0.00000000E+00
  0.00000000E+00  0.00000000E+00  0.00000000E+00
  0.00000000E+00  0.00000000E+00  0.00000000E+00
  0.00000000E+00  0.00000000E+00  0.00000000E+00
  0.00000000E+00  0.00000000E+00  0.00000000E+00
  0.00000000E+00  0.00000000E+00  0.00000000E+00
  0.00000000E+00  0.00000000E+00  0.00000000E+00
  0.00000000E+00  0.00000000E+00  0.00000000E+00
  0.00000000E+00  0.00000000E+00  0.00000000E+00
  0.00000000E+00  0.00000000E+00  0.00000000E+00
  0.00000000E+00  0.00000000E+00  0.00000000E+00
  0.00000000E+00  0.00000000E+00  0.00000000E+00
  0.00000000E+00  0.00000000E+00  0.00000000E+00
  0.00000000E+00  0.00000000E+00  0.00000000E+00
  0.00000000E+00  0.00000000E+00  0.00000000E+00
  0.00000000E+00  0.00000000E+00  0.00000000E+00
  0.00000000E+00  0.00000000E+00  0.00000000E+00
  0.00000000E+00  0.00000000E+00  0.00000000E+00
