XCrySDen XSF file                       
   1.00000000000000     
     8.7557992935000009    0.0000000000000000    0.0000000000000000
    -4.3755486645000001    7.6221232039000002    0.0000000000000000
     0.0000000000000000    0.0000000000000000   37.2496528624999996
   O    Si   C    Fe   H 
    35    17     3     1     7
Selective dynamics
Direct
  0.9537193630746059  0.1458486017677330  0.1589486193754999   T   T   T
  0.7931936179896076  0.3243901892578405  0.3016760900797055   T   T   T
  0.8910249588383902  0.0900496247420610  0.2881480727434680   T   T   T
  0.8535478942586264  0.3844566530396826  0.1662024636652351   T   T   T
  0.7162176665382912  0.3378312954298274  0.2311644901523337   T   T   T
  0.0622947320763060  0.4090191714096917  0.1129893617367465   T   T   T
  0.6165868566731342  0.4791155208288839  0.1792454637211561   T   T   T
  0.1855477412938975  0.4700468284356343  0.1798516675107718   T   T   T
  0.5228442707038496  0.7194466155131616  0.1729487490117067   T   T   T
  0.1082592536359386  0.4418629862418384  0.2760459890299441   T   T   T
  0.3619445672588263  0.6736479766839722  0.2353899597196288   T   T   T
  0.6209918355605915  0.6156879571523265  0.1148296996499502   T   T   T
  0.8594687001233253  0.8084168328419635  0.1621665238717892   T   T   T
  0.2746075816100261  0.8060148557367151  0.1805547053362213   T   T   T
  0.1449066211187647  0.0242265169332926  0.2656127454019241   T   T   T
  0.2335140679981997  0.7903753999066839  0.2876248837307026   T   T   T
  0.1828240380547644  0.0503217867434417  0.1804325951351684   T   T   T
  0.9043609667782614  0.9885964189308352  0.2215283014158226   T   T   T
  0.2964738721547016  0.9771848583145827  0.1207976506322206   T   T   T
  0.5193195024277146  0.1412620131407397  0.1759355890649555   T   T   T
  0.4753873207711946  0.1289865884102072  0.2773544835833630   T   T   T
  0.2442521267558438  0.0359500892831592  0.3324820307524192   T   T   T
  0.0295916915458163  0.3104283592810482  0.3436699562037801   T   T   T
  0.8519818603517848  0.2834186672415200  0.0551449434329641   F   F   F
  0.0950442539208964  0.1962045167722835  0.0664311962619948   F   F   F
  0.6435243804665305  0.2873233535348021  0.0062649442898532   F   F   F
  0.5340368832223561  0.6406750283833489  0.0487701726162655   F   F   F
  0.7535487030588044  0.5234809111926211  0.0605608865222749   F   F   F
  0.1881938317753793  0.5236841354070023  0.0485992448488659   F   F   F
  0.4050355164736175  0.7543958351470721  0.0000624435349366   F   F   F
  0.8625582792101696  0.8600146999258627  0.0708431568407093   F   F   F
  0.1975223989154387  0.9665013019247226  0.0524192536023804   F   F   F
  0.4132527475511694  0.8496875249518681  0.0695734000412358   F   F   F
  0.9971027802074630  0.9977975685447547  0.0056476767924920   F   F   F
  0.5247863137266933  0.1916698222947204  0.0742682357393178   F   F   F
  0.6749825287619377  0.3341822224407889  0.1882728152022477   T   T   T
  0.6517501369513559  0.3211477954141046  0.2728337376305041   T   T   T
  0.9595667676731945  0.2915952542378244  0.3021767936249917   T   T   T
  0.0140965624612893  0.3521164435994064  0.1547725245416686   T   T   T
  0.3358965913785139  0.6663567071242840  0.1920359263880386   T   T   T
  0.6551886472592831  0.6552013233685070  0.1574987613058568   T   T   T
  0.2815228018190694  0.6398258666293034  0.2758207090948039   T   T   T
  0.9770710963615701  0.9992150661618010  0.1809758765344473   T   T   T
  0.2772099514721538  0.9933843974185729  0.2909244301661891   T   T   T
  0.3206667555497382  0.9953414494884248  0.1641209175431965   T   T   T
  0.9326966470467338  0.9555523215974335  0.2636699670782814   T   T   T
  0.6910891230530325  0.3223176711107172  0.0490122419862331   F   F   F
  0.0486349901715357  0.3525062411252051  0.0710278297026363   F   F   F
  0.6954463677419866  0.6630077820592390  0.0740326899200809   F   F   F
  0.3823500945200209  0.6925494194713409  0.0420185392271293   F   F   F
  0.3572396420070518  0.9956208784603575  0.0791641739826403   F   F   F
  0.0343190646981597  0.0047659948584169  0.0487926426243206   F   F   F
  0.4399727095110367  0.6413439269461354  0.3090582287171095   T   T   T
  0.5015942581014021  0.5312064563473154  0.2989095363885884   T   T   T
  0.6236837869398398  0.5076208941794024  0.2853190290967465   T   T   T
  0.7075298621669787  0.7557131643118784  0.2958517189191066   T   T   T
  0.0846622882635844  0.2410616130775503  0.3493260822865150   T   T   T
  0.2968696541574721  0.0027771744013369  0.3515496448307573   T   T   T
  0.4093040729055643  0.6457623589478871  0.3374710593689773   T   T   T
  0.9001265619818498  0.8069261665547126  0.3007373209245558   T   T   T
  0.5596981128695120  0.3181124123996497  0.9966964024348286   F   F   F
  0.3225111365496645  0.7871832873194649  0.9905822783424298   F   F   F
  0.8933420371027765  0.0014253246384754  0.9978161175675808   F   F   F
 
  0.00000000E+00  0.00000000E+00  0.00000000E+00
  0.00000000E+00  0.00000000E+00  0.00000000E+00
  0.00000000E+00  0.00000000E+00  0.00000000E+00
  0.00000000E+00  0.00000000E+00  0.00000000E+00
  0.00000000E+00  0.00000000E+00  0.00000000E+00
  0.00000000E+00  0.00000000E+00  0.00000000E+00
  0.00000000E+00  0.00000000E+00  0.00000000E+00
  0.00000000E+00  0.00000000E+00  0.00000000E+00
  0.00000000E+00  0.00000000E+00  0.00000000E+00
  0.00000000E+00  0.00000000E+00  0.00000000E+00
  0.00000000E+00  0.00000000E+00  0.00000000E+00
  0.00000000E+00  0.00000000E+00  0.00000000E+00
  0.00000000E+00  0.00000000E+00  0.00000000E+00
  0.00000000E+00  0.00000000E+00  0.00000000E+00
  0.00000000E+00  0.00000000E+00  0.00000000E+00
  0.00000000E+00  0.00000000E+00  0.00000000E+00
  0.00000000E+00  0.00000000E+00  0.00000000E+00
  0.00000000E+00  0.00000000E+00  0.00000000E+00
  0.00000000E+00  0.00000000E+00  0.00000000E+00
  0.00000000E+00  0.00000000E+00  0.00000000E+00
  0.00000000E+00  0.00000000E+00  0.00000000E+00
  0.00000000E+00  0.00000000E+00  0.00000000E+00
  0.00000000E+00  0.00000000E+00  0.00000000E+00
  0.00000000E+00  0.00000000E+00  0.00000000E+00
  0.00000000E+00  0.00000000E+00  0.00000000E+00
  0.00000000E+00  0.00000000E+00  0.00000000E+00
  0.00000000E+00  0.00000000E+00  0.00000000E+00
  0.00000000E+00  0.00000000E+00  0.00000000E+00
  0.00000000E+00  0.00000000E+00  0.00000000E+00
  0.00000000E+00  0.00000000E+00  0.00000000E+00
  0.00000000E+00  0.00000000E+00  0.00000000E+00
  0.00000000E+00  0.00000000E+00  0.00000000E+00
  0.00000000E+00  0.00000000E+00  0.00000000E+00
  0.00000000E+00  0.00000000E+00  0.00000000E+00
  0.00000000E+00  0.00000000E+00  0.00000000E+00
  0.00000000E+00  0.00000000E+00  0.00000000E+00
  0.00000000E+00  0.00000000E+00  0.00000000E+00
  0.00000000E+00  0.00000000E+00  0.00000000E+00
  0.00000000E+00  0.00000000E+00  0.00000000E+00
  0.00000000E+00  0.00000000E+00  0.00000000E+00
  0.00000000E+00  0.00000000E+00  0.00000000E+00
  0.00000000E+00  0.00000000E+00  0.00000000E+00
  0.00000000E+00  0.00000000E+00  0.00000000E+00
  0.00000000E+00  0.00000000E+00  0.00000000E+00
  0.00000000E+00  0.00000000E+00  0.00000000E+00
  0.00000000E+00  0.00000000E+00  0.00000000E+00
  0.00000000E+00  0.00000000E+00  0.00000000E+00
  0.00000000E+00  0.00000000E+00  0.00000000E+00
  0.00000000E+00  0.00000000E+00  0.00000000E+00
  0.00000000E+00  0.00000000E+00  0.00000000E+00
  0.00000000E+00  0.00000000E+00  0.00000000E+00
  0.00000000E+00  0.00000000E+00  0.00000000E+00
  0.00000000E+00  0.00000000E+00  0.00000000E+00
  0.00000000E+00  0.00000000E+00  0.00000000E+00
  0.00000000E+00  0.00000000E+00  0.00000000E+00
  0.00000000E+00  0.00000000E+00  0.00000000E+00
  0.00000000E+00  0.00000000E+00  0.00000000E+00
  0.00000000E+00  0.00000000E+00  0.00000000E+00
  0.00000000E+00  0.00000000E+00  0.00000000E+00
  0.00000000E+00  0.00000000E+00  0.00000000E+00
  0.00000000E+00  0.00000000E+00  0.00000000E+00
  0.00000000E+00  0.00000000E+00  0.00000000E+00
  0.00000000E+00  0.00000000E+00  0.00000000E+00
