XCrySDen XSF file                       
   1.00000000000000     
     8.7557992935000009    0.0000000000000000    0.0000000000000000
    -4.3755486645000001    7.6221232039000002    0.0000000000000000
     0.0000000000000000    0.0000000000000000   37.2496528624999996
   O    Si   C    Fe   H 
    35    17     3     1     7
Selective dynamics
Direct
  0.9380696897663416  0.1591290252318755  0.1672689164220271   T   T   T
  0.7951708793244190  0.2283040432098772  0.2871182040321223   T   T   T
  0.0269671437139991  0.1191207399570356  0.2917501248165416   T   T   T
  0.8495827822448977  0.4061723247803223  0.1649155887989484   T   T   T
  0.7136925196098958  0.3617622724300293  0.2306846880139805   T   T   T
  0.0543991961667479  0.3982923790508346  0.1135370576450793   T   T   T
  0.6099511095427643  0.4974782654684533  0.1802162337119136   T   T   T
  0.1806646861601989  0.4880736236080493  0.1790455643051872   T   T   T
  0.5161338285907551  0.7371670585053196  0.1687479321805718   T   T   T
  0.1265932494254144  0.4620378466761754  0.2780943287248956   T   T   T
  0.3729235225326631  0.6832096885958930  0.2329529268739880   T   T   T
  0.6257420200594463  0.6206115622221889  0.1149691366094112   T   T   T
  0.8546607245301598  0.8266614725810874  0.1635689378240817   T   T   T
  0.2737006969362217  0.8260039582099415  0.1826573781079507   T   T   T
  0.1314792119464929  0.9027333545555997  0.2687787107522753   T   T   T
  0.3449884078453430  0.7990532500709037  0.2968176818554933   T   T   T
  0.1840278840772212  0.0722846121436161  0.1775929588838843   T   T   T
  0.9332827883524488  0.9869923301834627  0.2268270876402339   T   T   T
  0.2974303276438709  0.9785110309562860  0.1207556229069249   T   T   T
  0.5190226153399981  0.1602679004610454  0.1751819189574359   T   T   T
  0.4665473745655521  0.1306441512872047  0.2727049279529569   T   T   T
  0.2861259199760731  0.0178612884506118  0.3343413244981806   T   T   T
  0.0228071994139277  0.3280760086389720  0.3428361963286544   T   T   T
  0.8519818603517848  0.2834186672415200  0.0551449434329641   F   F   F
  0.0950442539208964  0.1962045167722835  0.0664311962619948   F   F   F
  0.6435243804665305  0.2873233535348021  0.0062649442898532   F   F   F
  0.5340368832223561  0.6406750283833489  0.0487701726162655   F   F   F
  0.7535487030588044  0.5234809111926211  0.0605608865222749   F   F   F
  0.1881938317753793  0.5236841354070023  0.0485992448488659   F   F   F
  0.4050355164736175  0.7543958351470721  0.0000624435349366   F   F   F
  0.8625582792101696  0.8600146999258627  0.0708431568407093   F   F   F
  0.1975223989154387  0.9665013019247226  0.0524192536023804   F   F   F
  0.4132527475511694  0.8496875249518681  0.0695734000412358   F   F   F
  0.9971027802074630  0.9977975685447547  0.0056476767924920   F   F   F
  0.5247863137266933  0.1916698222947204  0.0742682357393178   F   F   F
  0.6718506351439691  0.3540044103481678  0.1878860848301594   T   T   T
  0.6660175453649291  0.2996688962159586  0.2723323708097345   T   T   T
  0.9936612235154982  0.2819896735332844  0.2995228076396952   T   T   T
  0.0051186787692112  0.3614220716272074  0.1559701098831013   T   T   T
  0.3347684775704404  0.6827076257687779  0.1903846160420693   T   T   T
  0.6530613010218084  0.6714203367822008  0.1571954935469953   T   T   T
  0.3248553945472855  0.6296003221361232  0.2746024662656504   T   T   T
  0.9779403824718627  0.0115397329846823  0.1842180370813309   T   T   T
  0.3072395098982870  0.9634972044044179  0.2928642908554756   T   T   T
  0.3209644108706911  0.0111140314379589  0.1638442453715655   T   T   T
  0.9592194591448788  0.9336593385395047  0.2679515940322278   T   T   T
  0.6910891230530325  0.3223176711107172  0.0490122419862331   F   F   F
  0.0486349901715357  0.3525062411252051  0.0710278297026363   F   F   F
  0.6954463677419866  0.6630077820592390  0.0740326899200809   F   F   F
  0.3823500945200209  0.6925494194713409  0.0420185392271293   F   F   F
  0.3572396420070518  0.9956208784603575  0.0791641739826403   F   F   F
  0.0343190646981597  0.0047659948584169  0.0487926426243206   F   F   F
  0.4877697554691112  0.5735254964091923  0.2913873483223915   T   T   T
  0.5092376290633636  0.4599537011798762  0.3133691420256134   T   T   T
  0.6769615975098011  0.4639619487002359  0.3059855923474740   T   T   T
  0.7189327554661096  0.7021081858676350  0.2990354896078524   T   T   T
  0.0251262534630083  0.2382651624220771  0.3574415941868250   T   T   T
  0.2843555680404015  0.9369380792862200  0.3521746299694758   T   T   T
  0.4268163411248234  0.3949065371608334  0.3369079749450821   T   T   T
  0.7458628489873222  0.4570835741890927  0.3302265814367075   T   T   T
  0.5596981128695120  0.3181124123996497  0.9966964024348286   F   F   F
  0.3225111365496645  0.7871832873194649  0.9905822783424298   F   F   F
  0.8933420371027765  0.0014253246384754  0.9978161175675808   F   F   F
 
  0.00000000E+00  0.00000000E+00  0.00000000E+00
  0.00000000E+00  0.00000000E+00  0.00000000E+00
  0.00000000E+00  0.00000000E+00  0.00000000E+00
  0.00000000E+00  0.00000000E+00  0.00000000E+00
  0.00000000E+00  0.00000000E+00  0.00000000E+00
  0.00000000E+00  0.00000000E+00  0.00000000E+00
  0.00000000E+00  0.00000000E+00  0.00000000E+00
  0.00000000E+00  0.00000000E+00  0.00000000E+00
  0.00000000E+00  0.00000000E+00  0.00000000E+00
  0.00000000E+00  0.00000000E+00  0.00000000E+00
  0.00000000E+00  0.00000000E+00  0.00000000E+00
  0.00000000E+00  0.00000000E+00  0.00000000E+00
  0.00000000E+00  0.00000000E+00  0.00000000E+00
  0.00000000E+00  0.00000000E+00  0.00000000E+00
  0.00000000E+00  0.00000000E+00  0.00000000E+00
  0.00000000E+00  0.00000000E+00  0.00000000E+00
  0.00000000E+00  0.00000000E+00  0.00000000E+00
  0.00000000E+00  0.00000000E+00  0.00000000E+00
  0.00000000E+00  0.00000000E+00  0.00000000E+00
  0.00000000E+00  0.00000000E+00  0.00000000E+00
  0.00000000E+00  0.00000000E+00  0.00000000E+00
  0.00000000E+00  0.00000000E+00  0.00000000E+00
  0.00000000E+00  0.00000000E+00  0.00000000E+00
  0.00000000E+00  0.00000000E+00  0.00000000E+00
  0.00000000E+00  0.00000000E+00  0.00000000E+00
  0.00000000E+00  0.00000000E+00  0.00000000E+00
  0.00000000E+00  0.00000000E+00  0.00000000E+00
  0.00000000E+00  0.00000000E+00  0.00000000E+00
  0.00000000E+00  0.00000000E+00  0.00000000E+00
  0.00000000E+00  0.00000000E+00  0.00000000E+00
  0.00000000E+00  0.00000000E+00  0.00000000E+00
  0.00000000E+00  0.00000000E+00  0.00000000E+00
  0.00000000E+00  0.00000000E+00  0.00000000E+00
  0.00000000E+00  0.00000000E+00  0.00000000E+00
  0.00000000E+00  0.00000000E+00  0.00000000E+00
  0.00000000E+00  0.00000000E+00  0.00000000E+00
  0.00000000E+00  0.00000000E+00  0.00000000E+00
  0.00000000E+00  0.00000000E+00  0.00000000E+00
  0.00000000E+00  0.00000000E+00  0.00000000E+00
  0.00000000E+00  0.00000000E+00  0.00000000E+00
  0.00000000E+00  0.00000000E+00  0.00000000E+00
  0.00000000E+00  0.00000000E+00  0.00000000E+00
  0.00000000E+00  0.00000000E+00  0.00000000E+00
  0.00000000E+00  0.00000000E+00  0.00000000E+00
  0.00000000E+00  0.00000000E+00  0.00000000E+00
  0.00000000E+00  0.00000000E+00  0.00000000E+00
  0.00000000E+00  0.00000000E+00  0.00000000E+00
  0.00000000E+00  0.00000000E+00  0.00000000E+00
  0.00000000E+00  0.00000000E+00  0.00000000E+00
  0.00000000E+00  0.00000000E+00  0.00000000E+00
  0.00000000E+00  0.00000000E+00  0.00000000E+00
  0.00000000E+00  0.00000000E+00  0.00000000E+00
  0.00000000E+00  0.00000000E+00  0.00000000E+00
  0.00000000E+00  0.00000000E+00  0.00000000E+00
  0.00000000E+00  0.00000000E+00  0.00000000E+00
  0.00000000E+00  0.00000000E+00  0.00000000E+00
  0.00000000E+00  0.00000000E+00  0.00000000E+00
  0.00000000E+00  0.00000000E+00  0.00000000E+00
  0.00000000E+00  0.00000000E+00  0.00000000E+00
  0.00000000E+00  0.00000000E+00  0.00000000E+00
  0.00000000E+00  0.00000000E+00  0.00000000E+00
  0.00000000E+00  0.00000000E+00  0.00000000E+00
  0.00000000E+00  0.00000000E+00  0.00000000E+00
