XCrySDen XSF file                       
   1.00000000000000     
     8.7557992935000009    0.0000000000000000    0.0000000000000000
    -4.3755486645000001    7.6221232039000002    0.0000000000000000
     0.0000000000000000    0.0000000000000000   37.2496528624999996
   O    Si   C    Fe   H 
    35    17     4     1    10
Selective dynamics
Direct
  0.9422406522375644  0.1633807217996885  0.1652632975513216   T   T   T
  0.7714430275590286  0.2855181907398712  0.2951444095795443   T   T   T
  0.0077120038265324  0.1803753237414386  0.2817861121344896   T   T   T
  0.8491684420114549  0.4069741374984891  0.1597602235702858   T   T   T
  0.7353661733076191  0.3514543454837178  0.2261412190401844   T   T   T
  0.0690653720029281  0.4065884683788308  0.1131383992014222   T   T   T
  0.6165563499745826  0.4998352268252635  0.1803049592854633   T   T   T
  0.1761797443408564  0.4915980613900734  0.1806708388466393   T   T   T
  0.5145293843212527  0.7322382055386086  0.1708693883278761   T   T   T
  0.0924298683867614  0.5209812870271944  0.2784489031297220   T   T   T
  0.3707814819649813  0.6850105736748844  0.2355496256323200   T   T   T
  0.6210805410954425  0.6196373292195433  0.1148309052802548   T   T   T
  0.8538480386852474  0.8295109910049507  0.1614002564620578   T   T   T
  0.2785388820913538  0.8305195401950968  0.1839563580978575   T   T   T
  0.1164103704350010  0.9532947264582606  0.2711161833619652   T   T   T
  0.3398625469836261  0.8555899997222792  0.2930099536037465   T   T   T
  0.1796842821761727  0.0678641074545735  0.1787179567692002   T   T   T
  0.9074564372609556  0.9812492289631516  0.2245678293156564   T   T   T
  0.2922536165337715  0.9746562944318571  0.1206424282358704   T   T   T
  0.5175806820784474  0.1630024046127492  0.1726598781337451   T   T   T
  0.4586149931451207  0.1763556938022591  0.2676724659231192   T   T   T
  0.2898731616065244  0.0842774185044979  0.3318286265658601   T   T   T
  0.0235168615188038  0.3503559730280416  0.3420231435177796   T   T   T
  0.8519818603517848  0.2834186672415200  0.0551449434329641   F   F   F
  0.0950442539208964  0.1962045167722835  0.0664311962619948   F   F   F
  0.6435243804665305  0.2873233535348021  0.0062649442898532   F   F   F
  0.5340368832223561  0.6406750283833489  0.0487701726162655   F   F   F
  0.7535487030588044  0.5234809111926211  0.0605608865222749   F   F   F
  0.1881938317753793  0.5236841354070023  0.0485992448488659   F   F   F
  0.4050355164736175  0.7543958351470721  0.0000624435349366   F   F   F
  0.8625582792101696  0.8600146999258627  0.0708431568407093   F   F   F
  0.1975223989154387  0.9665013019247226  0.0524192536023804   F   F   F
  0.4132527475511694  0.8496875249518681  0.0695734000412358   F   F   F
  0.9971027802074630  0.9977975685447547  0.0056476767924920   F   F   F
  0.5247863137266933  0.1916698222947204  0.0742682357393178   F   F   F
  0.6773366977184286  0.3535958652681127  0.1845453398555238   T   T   T
  0.6616009529067034  0.3377533911675670  0.2667315341117527   T   T   T
  0.9759683951832194  0.3318699789483867  0.2985920133415945   T   T   T
  0.0103827184460295  0.3664009857545175  0.1549433148350830   T   T   T
  0.3346479573695086  0.6839989013526404  0.1924799443905655   T   T   T
  0.6522347166720983  0.6712930386738262  0.1570708352351166   T   T   T
  0.3019368299903446  0.6679300262442934  0.2767008884864487   T   T   T
  0.9729281039329177  0.0117886056728754  0.1832184493189596   T   T   T
  0.3019603915625114  0.0193176142290451  0.2906954168899506   T   T   T
  0.3178627910749758  0.0102633533494909  0.1636873004890240   T   T   T
  0.9390110115044208  0.9738017739336478  0.2680402540649406   T   T   T
  0.6910891230530325  0.3223176711107172  0.0490122419862331   F   F   F
  0.0486349901715357  0.3525062411252051  0.0710278297026363   F   F   F
  0.6954463677419866  0.6630077820592390  0.0740326899200809   F   F   F
  0.3823500945200209  0.6925494194713409  0.0420185392271293   F   F   F
  0.3572396420070518  0.9956208784603575  0.0791641739826403   F   F   F
  0.0343190646981597  0.0047659948584169  0.0487926426243206   F   F   F
  0.4244450655351807  0.6019327527506796  0.3076058539544497   T   T   T
  0.5173716620255999  0.5277583563104232  0.2943162793237449   T   T   T
  0.6599368472048951  0.5360391818268245  0.2820000634183912   T   T   T
  0.7599872649446572  0.9278731100831180  0.3545340260597342   T   T   T
  0.7031172712857741  0.7642452241323727  0.3022632336008397   T   T   T
  0.1015537668380274  0.3052964781010770  0.3478533806139295   T   T   T
  0.3958866085893996  0.1273148694510368  0.3460787616189471   T   T   T
  0.3798306742318640  0.5782238031056716  0.3355685200483002   T   T   T
  0.6868020519758732  0.8467570979977596  0.3775095728930752   T   T   T
  0.8675686392614803  0.9025288498057927  0.3472098580814614   T   T   T
  0.6593308133140253  0.9034355315997071  0.3329370572918682   T   T   T
  0.8193471470075712  0.0680498338779369  0.3604187789679217   T   T   T
  0.5596981128695120  0.3181124123996497  0.9966964024348286   F   F   F
  0.3225111365496645  0.7871832873194649  0.9905822783424298   F   F   F
  0.8933420371027765  0.0014253246384754  0.9978161175675808   F   F   F
 
  0.00000000E+00  0.00000000E+00  0.00000000E+00
  0.00000000E+00  0.00000000E+00  0.00000000E+00
  0.00000000E+00  0.00000000E+00  0.00000000E+00
  0.00000000E+00  0.00000000E+00  0.00000000E+00
  0.00000000E+00  0.00000000E+00  0.00000000E+00
  0.00000000E+00  0.00000000E+00  0.00000000E+00
  0.00000000E+00  0.00000000E+00  0.00000000E+00
  0.00000000E+00  0.00000000E+00  0.00000000E+00
  0.00000000E+00  0.00000000E+00  0.00000000E+00
  0.00000000E+00  0.00000000E+00  0.00000000E+00
  0.00000000E+00  0.00000000E+00  0.00000000E+00
  0.00000000E+00  0.00000000E+00  0.00000000E+00
  0.00000000E+00  0.00000000E+00  0.00000000E+00
  0.00000000E+00  0.00000000E+00  0.00000000E+00
  0.00000000E+00  0.00000000E+00  0.00000000E+00
  0.00000000E+00  0.00000000E+00  0.00000000E+00
  0.00000000E+00  0.00000000E+00  0.00000000E+00
  0.00000000E+00  0.00000000E+00  0.00000000E+00
  0.00000000E+00  0.00000000E+00  0.00000000E+00
  0.00000000E+00  0.00000000E+00  0.00000000E+00
  0.00000000E+00  0.00000000E+00  0.00000000E+00
  0.00000000E+00  0.00000000E+00  0.00000000E+00
  0.00000000E+00  0.00000000E+00  0.00000000E+00
  0.00000000E+00  0.00000000E+00  0.00000000E+00
  0.00000000E+00  0.00000000E+00  0.00000000E+00
  0.00000000E+00  0.00000000E+00  0.00000000E+00
  0.00000000E+00  0.00000000E+00  0.00000000E+00
  0.00000000E+00  0.00000000E+00  0.00000000E+00
  0.00000000E+00  0.00000000E+00  0.00000000E+00
  0.00000000E+00  0.00000000E+00  0.00000000E+00
  0.00000000E+00  0.00000000E+00  0.00000000E+00
  0.00000000E+00  0.00000000E+00  0.00000000E+00
  0.00000000E+00  0.00000000E+00  0.00000000E+00
  0.00000000E+00  0.00000000E+00  0.00000000E+00
  0.00000000E+00  0.00000000E+00  0.00000000E+00
  0.00000000E+00  0.00000000E+00  0.00000000E+00
  0.00000000E+00  0.00000000E+00  0.00000000E+00
  0.00000000E+00  0.00000000E+00  0.00000000E+00
  0.00000000E+00  0.00000000E+00  0.00000000E+00
  0.00000000E+00  0.00000000E+00  0.00000000E+00
  0.00000000E+00  0.00000000E+00  0.00000000E+00
  0.00000000E+00  0.00000000E+00  0.00000000E+00
  0.00000000E+00  0.00000000E+00  0.00000000E+00
  0.00000000E+00  0.00000000E+00  0.00000000E+00
  0.00000000E+00  0.00000000E+00  0.00000000E+00
  0.00000000E+00  0.00000000E+00  0.00000000E+00
  0.00000000E+00  0.00000000E+00  0.00000000E+00
  0.00000000E+00  0.00000000E+00  0.00000000E+00
  0.00000000E+00  0.00000000E+00  0.00000000E+00
  0.00000000E+00  0.00000000E+00  0.00000000E+00
  0.00000000E+00  0.00000000E+00  0.00000000E+00
  0.00000000E+00  0.00000000E+00  0.00000000E+00
  0.00000000E+00  0.00000000E+00  0.00000000E+00
  0.00000000E+00  0.00000000E+00  0.00000000E+00
  0.00000000E+00  0.00000000E+00  0.00000000E+00
  0.00000000E+00  0.00000000E+00  0.00000000E+00
  0.00000000E+00  0.00000000E+00  0.00000000E+00
  0.00000000E+00  0.00000000E+00  0.00000000E+00
  0.00000000E+00  0.00000000E+00  0.00000000E+00
  0.00000000E+00  0.00000000E+00  0.00000000E+00
  0.00000000E+00  0.00000000E+00  0.00000000E+00
  0.00000000E+00  0.00000000E+00  0.00000000E+00
  0.00000000E+00  0.00000000E+00  0.00000000E+00
  0.00000000E+00  0.00000000E+00  0.00000000E+00
  0.00000000E+00  0.00000000E+00  0.00000000E+00
  0.00000000E+00  0.00000000E+00  0.00000000E+00
  0.00000000E+00  0.00000000E+00  0.00000000E+00
