XCrySDen XSF file                       
   1.00000000000000     
     8.7557992935000009    0.0000000000000000    0.0000000000000000
    -4.3755486645000001    7.6221232039000002    0.0000000000000000
     0.0000000000000000    0.0000000000000000   37.2496528624999996
   O    Si   C    Fe   H 
    35    17     4     1    10
Selective dynamics
Direct
  0.9363879225577254  0.1606778779827887  0.1646585401921239   T   T   T
  0.7738273891560457  0.2674179529819082  0.2916378059518029   T   T   T
  0.0358055455816170  0.1982750594866199  0.2846093607489945   T   T   T
  0.8422304404993933  0.4036306102965171  0.1575933079528236   T   T   T
  0.7358889866527742  0.3458208561107860  0.2241979996323514   T   T   T
  0.0707858152218536  0.4068966586412913  0.1131264247974112   T   T   T
  0.6093439108448693  0.4940877667033152  0.1799956021907465   T   T   T
  0.1659905735460883  0.4880153912962918  0.1813465105143827   T   T   T
  0.5046011084021733  0.7252786858759857  0.1704431285897790   T   T   T
  0.0965370737709044  0.5279705408041419  0.2811764539918995   T   T   T
  0.3663250810178331  0.6813460310373075  0.2355013937848772   T   T   T
  0.6247694389817030  0.6232843438449872  0.1151220648619669   T   T   T
  0.8460963595705349  0.8262622148687103  0.1650103191310349   T   T   T
  0.2717828090760980  0.8272341613773453  0.1840494521513062   T   T   T
  0.1181691469959990  0.9537207423375285  0.2723333630689882   T   T   T
  0.3446522421442298  0.8544868074396285  0.2937773479493769   T   T   T
  0.1754698577178390  0.0665409662592595  0.1783224642891301   T   T   T
  0.9175629107038551  0.0013018304310293  0.2263434157428210   T   T   T
  0.2882807845845105  0.9715638640483800  0.1203976698020478   T   T   T
  0.5125863076260371  0.1580956952860904  0.1719373606954632   T   T   T
  0.4550837836530572  0.1660893738924334  0.2650698385203893   T   T   T
  0.3106309090980701  0.0927818314608047  0.3316762398473698   T   T   T
  0.0197973813627919  0.3688722251920862  0.3436537565922925   T   T   T
  0.8519818603517848  0.2834186672415200  0.0551449434329641   F   F   F
  0.0950442539208964  0.1962045167722835  0.0664311962619948   F   F   F
  0.6435243804665305  0.2873233535348021  0.0062649442898532   F   F   F
  0.5340368832223561  0.6406750283833489  0.0487701726162655   F   F   F
  0.7535487030588044  0.5234809111926211  0.0605608865222749   F   F   F
  0.1881938317753793  0.5236841354070023  0.0485992448488659   F   F   F
  0.4050355164736175  0.7543958351470721  0.0000624435349366   F   F   F
  0.8625582792101696  0.8600146999258627  0.0708431568407093   F   F   F
  0.1975223989154387  0.9665013019247226  0.0524192536023804   F   F   F
  0.4132527475511694  0.8496875249518681  0.0695734000412358   F   F   F
  0.9971027802074630  0.9977975685447547  0.0056476767924920   F   F   F
  0.5247863137266933  0.1916698222947204  0.0742682357393178   F   F   F
  0.6724492492989608  0.3491965375253827  0.1831241250427066   T   T   T
  0.6596904335719637  0.3185180885468298  0.2647981835708700   T   T   T
  0.9817994523686885  0.3368403526403641  0.3003627052946380   T   T   T
  0.0051253712283373  0.3642027381198782  0.1544796602253114   T   T   T
  0.3269933094879608  0.6799876102723976  0.1926661824054924   T   T   T
  0.6469645889698201  0.6687735838945729  0.1576569482879267   T   T   T
  0.3081451518631504  0.6678565120697261  0.2774238634890873   T   T   T
  0.9705932799686937  0.0146017820198639  0.1842697966634142   T   T   T
  0.3059767370932895  0.0166837983055928  0.2910840304044278   T   T   T
  0.3120557898101488  0.0065294207555208  0.1634523775229545   T   T   T
  0.9530303933914442  0.9944681371848209  0.2697177543312339   T   T   T
  0.6910891230530325  0.3223176711107172  0.0490122419862331   F   F   F
  0.0486349901715357  0.3525062411252051  0.0710278297026363   F   F   F
  0.6954463677419866  0.6630077820592390  0.0740326899200809   F   F   F
  0.3823500945200209  0.6925494194713409  0.0420185392271293   F   F   F
  0.3572396420070518  0.9956208784603575  0.0791641739826403   F   F   F
  0.0343190646981597  0.0047659948584169  0.0487926426243206   F   F   F
  0.4381406130073776  0.6044633128586848  0.3065518638198260   T   T   T
  0.5343592000873538  0.5337157833229969  0.2939150355980378   T   T   T
  0.6669721823932743  0.5197879131307012  0.2817447011919341   T   T   T
  0.7818175640442571  0.9238752417809286  0.3434292305049477   T   T   T
  0.7243297339918532  0.7706649989444504  0.3017997723835897   T   T   T
 -0.0173900718578130  0.2631454028663767  0.3576618323338651   T   T   T
  0.3754056897713474  0.0672986294786766  0.3494233114166870   T   T   T
  0.3964772587958053  0.5798206684960028  0.3347511450139723   T   T   T
  0.7112131043255254  0.8319770838433740  0.3655608349576916   T   T   T
  0.8095333622525009  0.6477580099919169  0.2823847442663324   T   T   T
  0.7288732500794416  0.0132527832934116  0.3399913922794681   T   T   T
  0.9235080561235537  0.9958836739243905  0.3496122480895860   T   T   T
  0.5596981128695120  0.3181124123996497  0.9966964024348286   F   F   F
  0.3225111365496645  0.7871832873194649  0.9905822783424298   F   F   F
  0.8933420371027765  0.0014253246384754  0.9978161175675808   F   F   F
 
  0.00000000E+00  0.00000000E+00  0.00000000E+00
  0.00000000E+00  0.00000000E+00  0.00000000E+00
  0.00000000E+00  0.00000000E+00  0.00000000E+00
  0.00000000E+00  0.00000000E+00  0.00000000E+00
  0.00000000E+00  0.00000000E+00  0.00000000E+00
  0.00000000E+00  0.00000000E+00  0.00000000E+00
  0.00000000E+00  0.00000000E+00  0.00000000E+00
  0.00000000E+00  0.00000000E+00  0.00000000E+00
  0.00000000E+00  0.00000000E+00  0.00000000E+00
  0.00000000E+00  0.00000000E+00  0.00000000E+00
  0.00000000E+00  0.00000000E+00  0.00000000E+00
  0.00000000E+00  0.00000000E+00  0.00000000E+00
  0.00000000E+00  0.00000000E+00  0.00000000E+00
  0.00000000E+00  0.00000000E+00  0.00000000E+00
  0.00000000E+00  0.00000000E+00  0.00000000E+00
  0.00000000E+00  0.00000000E+00  0.00000000E+00
  0.00000000E+00  0.00000000E+00  0.00000000E+00
  0.00000000E+00  0.00000000E+00  0.00000000E+00
  0.00000000E+00  0.00000000E+00  0.00000000E+00
  0.00000000E+00  0.00000000E+00  0.00000000E+00
  0.00000000E+00  0.00000000E+00  0.00000000E+00
  0.00000000E+00  0.00000000E+00  0.00000000E+00
  0.00000000E+00  0.00000000E+00  0.00000000E+00
  0.00000000E+00  0.00000000E+00  0.00000000E+00
  0.00000000E+00  0.00000000E+00  0.00000000E+00
  0.00000000E+00  0.00000000E+00  0.00000000E+00
  0.00000000E+00  0.00000000E+00  0.00000000E+00
  0.00000000E+00  0.00000000E+00  0.00000000E+00
  0.00000000E+00  0.00000000E+00  0.00000000E+00
  0.00000000E+00  0.00000000E+00  0.00000000E+00
  0.00000000E+00  0.00000000E+00  0.00000000E+00
  0.00000000E+00  0.00000000E+00  0.00000000E+00
  0.00000000E+00  0.00000000E+00  0.00000000E+00
  0.00000000E+00  0.00000000E+00  0.00000000E+00
  0.00000000E+00  0.00000000E+00  0.00000000E+00
  0.00000000E+00  0.00000000E+00  0.00000000E+00
  0.00000000E+00  0.00000000E+00  0.00000000E+00
  0.00000000E+00  0.00000000E+00  0.00000000E+00
  0.00000000E+00  0.00000000E+00  0.00000000E+00
  0.00000000E+00  0.00000000E+00  0.00000000E+00
  0.00000000E+00  0.00000000E+00  0.00000000E+00
  0.00000000E+00  0.00000000E+00  0.00000000E+00
  0.00000000E+00  0.00000000E+00  0.00000000E+00
  0.00000000E+00  0.00000000E+00  0.00000000E+00
  0.00000000E+00  0.00000000E+00  0.00000000E+00
  0.00000000E+00  0.00000000E+00  0.00000000E+00
  0.00000000E+00  0.00000000E+00  0.00000000E+00
  0.00000000E+00  0.00000000E+00  0.00000000E+00
  0.00000000E+00  0.00000000E+00  0.00000000E+00
  0.00000000E+00  0.00000000E+00  0.00000000E+00
  0.00000000E+00  0.00000000E+00  0.00000000E+00
  0.00000000E+00  0.00000000E+00  0.00000000E+00
  0.00000000E+00  0.00000000E+00  0.00000000E+00
  0.00000000E+00  0.00000000E+00  0.00000000E+00
  0.00000000E+00  0.00000000E+00  0.00000000E+00
  0.00000000E+00  0.00000000E+00  0.00000000E+00
  0.00000000E+00  0.00000000E+00  0.00000000E+00
  0.00000000E+00  0.00000000E+00  0.00000000E+00
  0.00000000E+00  0.00000000E+00  0.00000000E+00
  0.00000000E+00  0.00000000E+00  0.00000000E+00
  0.00000000E+00  0.00000000E+00  0.00000000E+00
  0.00000000E+00  0.00000000E+00  0.00000000E+00
  0.00000000E+00  0.00000000E+00  0.00000000E+00
  0.00000000E+00  0.00000000E+00  0.00000000E+00
  0.00000000E+00  0.00000000E+00  0.00000000E+00
  0.00000000E+00  0.00000000E+00  0.00000000E+00
  0.00000000E+00  0.00000000E+00  0.00000000E+00
