XCrySDen XSF file                       
   1.00000000000000     
     8.7557992935000009    0.0000000000000000    0.0000000000000000
    -4.3755486645000001    7.6221232039000002    0.0000000000000000
     0.0000000000000000    0.0000000000000000   37.2496528624999996
   O    Si   C    Fe   H 
    35    17     4     1    10
Selective dynamics
Direct
  0.9265052268174411  0.1493310555551840  0.1642467264952729   T   T   T
  0.7706001701743314  0.2855374303913791  0.2929001352706624   T   T   T
  0.0306031114499533  0.2124675544634954  0.2830975570952460   T   T   T
  0.8281259451451793  0.3889166126246736  0.1572005269110913   T   T   T
  0.7419083960587903  0.3677597453273493  0.2248641705364014   T   T   T
  0.0648624173128076  0.4022421139929793  0.1132932079548221   T   T   T
  0.5922221610229538  0.4803945797421878  0.1782538149636285   T   T   T
  0.1528287654743732  0.4759872963885559  0.1812763961295717   T   T   T
  0.4919680877169043  0.7156671142077526  0.1692223659796329   T   T   T
  0.0925418164010004  0.5445462571024413  0.2835921668225145   T   T   T
  0.3541253669181187  0.6644215875986401  0.2343344256786803   T   T   T
  0.6249415968358112  0.6245321138253184  0.1149422777714111   T   T   T
  0.8346592282844237  0.8151568890411830  0.1677222723968746   T   T   T
  0.2588126382862300  0.8153250914290813  0.1834121342705381   T   T   T
  0.1347916703508059  0.9736010256445323  0.2736518777459439   T   T   T
  0.3682971056156615  0.8718405643945052  0.2875417875666989   T   T   T
  0.1674818953875092  0.0581616981836826  0.1781215554011913   T   T   T
  0.9195468943275080  0.0029030473717673  0.2274532873804495   T   T   T
  0.2934950044034201  0.9752259003225834  0.1208059165813467   T   T   T
  0.5050482527406058  0.1466491698934288  0.1764616773106837   T   T   T
  0.4641494445967165  0.1983975413246616  0.2654701140883181   T   T   T
  0.3351873201284095  0.0919006281884235  0.3322087884798273   T   T   T
  0.0126184398636796  0.3639478002447543  0.3444489217800194   T   T   T
  0.8519818603517848  0.2834186672415200  0.0551449434329641   F   F   F
  0.0950442539208964  0.1962045167722835  0.0664311962619948   F   F   F
  0.6435243804665305  0.2873233535348021  0.0062649442898532   F   F   F
  0.5340368832223561  0.6406750283833489  0.0487701726162655   F   F   F
  0.7535487030588044  0.5234809111926211  0.0605608865222749   F   F   F
  0.1881938317753793  0.5236841354070023  0.0485992448488659   F   F   F
  0.4050355164736175  0.7543958351470721  0.0000624435349366   F   F   F
  0.8625582792101696  0.8600146999258627  0.0708431568407093   F   F   F
  0.1975223989154387  0.9665013019247226  0.0524192536023804   F   F   F
  0.4132527475511694  0.8496875249518681  0.0695734000412358   F   F   F
  0.9971027802074630  0.9977975685447547  0.0056476767924920   F   F   F
  0.5247863137266933  0.1916698222947204  0.0742682357393178   F   F   F
  0.6646850993379346  0.3441892123796209  0.1841087745777566   T   T   T
  0.6697568416683183  0.3537492879802729  0.2657513856877856   T   T   T
  0.9763784146648220  0.3482196044427208  0.3009981747326222   T   T   T
  0.9932955704921903  0.3530190938375493  0.1542085516406478   T   T   T
  0.3146968326195121  0.6682977216399476  0.1917485765566281   T   T   T
  0.6373234957998835  0.6611152140353418  0.1577078149185987   T   T   T
  0.3045113119043111  0.6699170235575762  0.2761295962223300   T   T   T
  0.9637359817506206  0.0073703467678507  0.1848818827365273   T   T   T
  0.3275597134904736  0.0335390834722349  0.2899429691817508   T   T   T
  0.3073871593824243  0.0003609357054613  0.1642258879539591   T   T   T
  0.9668517280809983  0.0093786447886686  0.2702666714123471   T   T   T
  0.6910891230530325  0.3223176711107172  0.0490122419862331   F   F   F
  0.0486349901715357  0.3525062411252051  0.0710278297026363   F   F   F
  0.6954463677419866  0.6630077820592390  0.0740326899200809   F   F   F
  0.3823500945200209  0.6925494194713409  0.0420185392271293   F   F   F
  0.3572396420070518  0.9956208784603575  0.0791641739826403   F   F   F
  0.0343190646981597  0.0047659948584169  0.0487926426243206   F   F   F
  0.4105818303878837  0.5778750528999196  0.3061787139660471   T   T   T
  0.5846531409617463  0.6095397202613692  0.2961759042443900   T   T   T
  0.6892302495667940  0.5574235847596333  0.2829099550668419   T   T   T
  0.9122226570948034  0.9335380068642911  0.3493195935965607   T   T   T
  0.8095917138162785  0.7782337186425137  0.3078199331626593   T   T   T
  0.0015616816939822  0.2596593807142493  0.3558681973549391   T   T   T
  0.4422782244183299  0.1206556714938214  0.3450789435797050   T   T   T
  0.4111069189430018  0.6294590901775673  0.3331555614493668   T   T   T
  0.9029638540047819  0.8352820917998356  0.3692207328620002   T   T   T
  0.3213553073436782  0.4348006250937914  0.3072345212490802   T   T   T
  0.8191909961191566  0.9777982136925564  0.3573212585534599   T   T   T
  0.0485945203955684  0.0422582909545501  0.3497319432184116   T   T   T
  0.5596981128695120  0.3181124123996497  0.9966964024348286   F   F   F
  0.3225111365496645  0.7871832873194649  0.9905822783424298   F   F   F
  0.8933420371027765  0.0014253246384754  0.9978161175675808   F   F   F
 
  0.00000000E+00  0.00000000E+00  0.00000000E+00
  0.00000000E+00  0.00000000E+00  0.00000000E+00
  0.00000000E+00  0.00000000E+00  0.00000000E+00
  0.00000000E+00  0.00000000E+00  0.00000000E+00
  0.00000000E+00  0.00000000E+00  0.00000000E+00
  0.00000000E+00  0.00000000E+00  0.00000000E+00
  0.00000000E+00  0.00000000E+00  0.00000000E+00
  0.00000000E+00  0.00000000E+00  0.00000000E+00
  0.00000000E+00  0.00000000E+00  0.00000000E+00
  0.00000000E+00  0.00000000E+00  0.00000000E+00
  0.00000000E+00  0.00000000E+00  0.00000000E+00
  0.00000000E+00  0.00000000E+00  0.00000000E+00
  0.00000000E+00  0.00000000E+00  0.00000000E+00
  0.00000000E+00  0.00000000E+00  0.00000000E+00
  0.00000000E+00  0.00000000E+00  0.00000000E+00
  0.00000000E+00  0.00000000E+00  0.00000000E+00
  0.00000000E+00  0.00000000E+00  0.00000000E+00
  0.00000000E+00  0.00000000E+00  0.00000000E+00
  0.00000000E+00  0.00000000E+00  0.00000000E+00
  0.00000000E+00  0.00000000E+00  0.00000000E+00
  0.00000000E+00  0.00000000E+00  0.00000000E+00
  0.00000000E+00  0.00000000E+00  0.00000000E+00
  0.00000000E+00  0.00000000E+00  0.00000000E+00
  0.00000000E+00  0.00000000E+00  0.00000000E+00
  0.00000000E+00  0.00000000E+00  0.00000000E+00
  0.00000000E+00  0.00000000E+00  0.00000000E+00
  0.00000000E+00  0.00000000E+00  0.00000000E+00
  0.00000000E+00  0.00000000E+00  0.00000000E+00
  0.00000000E+00  0.00000000E+00  0.00000000E+00
  0.00000000E+00  0.00000000E+00  0.00000000E+00
  0.00000000E+00  0.00000000E+00  0.00000000E+00
  0.00000000E+00  0.00000000E+00  0.00000000E+00
  0.00000000E+00  0.00000000E+00  0.00000000E+00
  0.00000000E+00  0.00000000E+00  0.00000000E+00
  0.00000000E+00  0.00000000E+00  0.00000000E+00
  0.00000000E+00  0.00000000E+00  0.00000000E+00
  0.00000000E+00  0.00000000E+00  0.00000000E+00
  0.00000000E+00  0.00000000E+00  0.00000000E+00
  0.00000000E+00  0.00000000E+00  0.00000000E+00
  0.00000000E+00  0.00000000E+00  0.00000000E+00
  0.00000000E+00  0.00000000E+00  0.00000000E+00
  0.00000000E+00  0.00000000E+00  0.00000000E+00
  0.00000000E+00  0.00000000E+00  0.00000000E+00
  0.00000000E+00  0.00000000E+00  0.00000000E+00
  0.00000000E+00  0.00000000E+00  0.00000000E+00
  0.00000000E+00  0.00000000E+00  0.00000000E+00
  0.00000000E+00  0.00000000E+00  0.00000000E+00
  0.00000000E+00  0.00000000E+00  0.00000000E+00
  0.00000000E+00  0.00000000E+00  0.00000000E+00
  0.00000000E+00  0.00000000E+00  0.00000000E+00
  0.00000000E+00  0.00000000E+00  0.00000000E+00
  0.00000000E+00  0.00000000E+00  0.00000000E+00
  0.00000000E+00  0.00000000E+00  0.00000000E+00
  0.00000000E+00  0.00000000E+00  0.00000000E+00
  0.00000000E+00  0.00000000E+00  0.00000000E+00
  0.00000000E+00  0.00000000E+00  0.00000000E+00
  0.00000000E+00  0.00000000E+00  0.00000000E+00
  0.00000000E+00  0.00000000E+00  0.00000000E+00
  0.00000000E+00  0.00000000E+00  0.00000000E+00
  0.00000000E+00  0.00000000E+00  0.00000000E+00
  0.00000000E+00  0.00000000E+00  0.00000000E+00
  0.00000000E+00  0.00000000E+00  0.00000000E+00
  0.00000000E+00  0.00000000E+00  0.00000000E+00
  0.00000000E+00  0.00000000E+00  0.00000000E+00
  0.00000000E+00  0.00000000E+00  0.00000000E+00
  0.00000000E+00  0.00000000E+00  0.00000000E+00
  0.00000000E+00  0.00000000E+00  0.00000000E+00
