XCrySDen XSF file                       
   1.00000000000000     
     8.7557991760000000    0.0014347150000000    0.0000000000000000
    -4.3767975578999998    7.6214061294000004    0.0000000000000000
     0.0000000000000000    0.0000000000000000   37.2496528624999996
   O    Si   C    Fe   H 
    35    17     3     1     7
Selective dynamics
Direct
  0.9471439716208852  0.1462245636188410  0.1578755609687425   T   T   T
  0.7892190883618877  0.3331426864340966  0.2985519015307522   T   T   T
  0.9880246283352812  0.1899799162899530  0.2833897088415884   T   T   T
  0.8442734484696695  0.3843099125489226  0.1642440593836310   T   T   T
  0.7062845372598151  0.3333751231601854  0.2295059030565411   T   T   T
  0.0632815686110352  0.4117776138231304  0.1128489669272828   T   T   T
  0.6057090088456714  0.4773644503129529  0.1789032242281243   T   T   T
  0.1729991994195025  0.4691476951591565  0.1808695607262183   T   T   T
  0.5093811027825674  0.7164148126094381  0.1705362347096995   T   T   T
  0.1209935526157057  0.5430042261810460  0.2842587639302102   T   T   T
  0.3707479914024479  0.6642366857821551  0.2350622935273953   T   T   T
  0.6254410394344447  0.6184379956365155  0.1149718732591430   T   T   T
  0.8489636177442231  0.8095557022025842  0.1657797019702037   T   T   T
  0.2679373495459128  0.8063482293655617  0.1826944609972515   T   T   T
  0.1330696030529130  0.9955373306443419  0.2661851275541381   T   T   T
  0.3603182291559519  0.8916318393692756  0.2795508342231534   T   T   T
  0.1763075765557598  0.0505033360817080  0.1797640239568272   T   T   T
  0.9118473146047742  0.0166439278508980  0.2225458544901986   T   T   T
  0.2924105086293250  0.9711267414833190  0.1207380519548429   T   T   T
  0.5122040968820742  0.1393824877045104  0.1749279404109125   T   T   T
  0.4612291820689306  0.2309440534734316  0.2818217139133192   T   T   T
  0.2572529658698735  0.0238277948952531  0.3339674893800631   T   T   T
  0.0292847921151542  0.3441841294722457  0.3448865066529715   T   T   T
  0.8519026110539869  0.2830175096409135  0.0551449455000963   F   F   F
  0.0951290435065033  0.1962061850667070  0.0664311973895266   F   F   F
  0.6435061787157181  0.2870410102154253  0.0062649441824689   F   F   F
  0.5342506074501685  0.6405541726310915  0.0487701749518550   F   F   F
  0.7536336604275746  0.5232028810499827  0.0605608868175764   F   F   F
  0.1884386361857082  0.5237255796688274  0.0485992416273646   F   F   F
  0.4053503677883512  0.7543799104697726  0.0000624435349366   F   F   F
  0.8628039680073414  0.8597700565214126  0.0708431599011377   F   F   F
  0.1980165186977203  0.9666623684948590  0.0524192516963211   F   F   F
  0.4136195033118710  0.8496938729704837  0.0695734043097360   F   F   F
  0.9973890368734430  0.9975159917261394  0.0056476771414893   F   F   F
  0.5247471517372873  0.1914274175841584  0.0742682395245922   F   F   F
  0.6662757116801644  0.3331183024829505  0.1866006021165805   T   T   T
  0.6640940963429074  0.3626539061851611  0.2706127357041669   T   T   T
  0.9849510097890650  0.3540289949661101  0.3025668638322111   T   T   T
  0.0074092159243631  0.3528479018767389  0.1542953315292729   T   T   T
  0.3292561476105972  0.6642097955687353  0.1924395672037996   T   T   T
  0.6483650866735117  0.6562191188975478  0.1577080600496330   T   T   T
  0.3278114377692539  0.6918178979312958  0.2766388969684711   T   T   T
  0.9724583658538297  0.0056041634526754  0.1818382481709640   T   T   T
  0.3005547546031300  0.0330693340509561  0.2911032116433126   T   T   T
  0.3126567733277460  0.9917513909311599  0.1641489497261155   T   T   T
  0.9508899296727309  0.0037758125386040  0.2651835583016963   T   T   T
  0.6910774899720735  0.3220183426711571  0.0490122440533654   F   F   F
  0.0488218116457233  0.3525782048129003  0.0710278288167245   F   F   F
  0.6956272550192253  0.6628021150869188  0.0740326861616509   F   F   F
  0.3826361464664956  0.6925288770002425  0.0420185394955936   F   F   F
  0.3577052593291512  0.9957001309194737  0.0791641802645557   F   F   F
  0.0343120899416434  0.0047479597412305  0.0487926409061856   F   F   F
  0.4704436338929174  0.6707443811801445  0.3109599492010258   T   T   T
  0.7024444081076796  0.5924027638041133  0.2747174807205322   T   T   T
  0.8507858401313143  0.8158665963540400  0.3252428823131742   T   T   T
  0.7105932224403338  0.7656998635653358  0.2933132880796723   T   T   T
  0.0241771308480783  0.4273924350614393  0.3611309693432413   T   T   T
  0.1319607978426241 -0.0406795954743214  0.3401776134409436   T   T   T
  0.4114028523475349  0.5332067214696720  0.3194333304629792   T   T   T
  0.4798395701211165  0.7488398565647767  0.3348633031192823   T   T   T
  0.5597210857188841  0.3178860933932910  0.9966963901662567   F   F   F
  0.3228679203900313  0.7872232214258759  0.9905822695638307   F   F   F
  0.8930906914664405  0.0009212644617307  0.9978161294603112   F   F   F
 
  0.00000000E+00  0.00000000E+00  0.00000000E+00
  0.00000000E+00  0.00000000E+00  0.00000000E+00
  0.00000000E+00  0.00000000E+00  0.00000000E+00
  0.00000000E+00  0.00000000E+00  0.00000000E+00
  0.00000000E+00  0.00000000E+00  0.00000000E+00
  0.00000000E+00  0.00000000E+00  0.00000000E+00
  0.00000000E+00  0.00000000E+00  0.00000000E+00
  0.00000000E+00  0.00000000E+00  0.00000000E+00
  0.00000000E+00  0.00000000E+00  0.00000000E+00
  0.00000000E+00  0.00000000E+00  0.00000000E+00
  0.00000000E+00  0.00000000E+00  0.00000000E+00
  0.00000000E+00  0.00000000E+00  0.00000000E+00
  0.00000000E+00  0.00000000E+00  0.00000000E+00
  0.00000000E+00  0.00000000E+00  0.00000000E+00
  0.00000000E+00  0.00000000E+00  0.00000000E+00
  0.00000000E+00  0.00000000E+00  0.00000000E+00
  0.00000000E+00  0.00000000E+00  0.00000000E+00
  0.00000000E+00  0.00000000E+00  0.00000000E+00
  0.00000000E+00  0.00000000E+00  0.00000000E+00
  0.00000000E+00  0.00000000E+00  0.00000000E+00
  0.00000000E+00  0.00000000E+00  0.00000000E+00
  0.00000000E+00  0.00000000E+00  0.00000000E+00
  0.00000000E+00  0.00000000E+00  0.00000000E+00
  0.00000000E+00  0.00000000E+00  0.00000000E+00
  0.00000000E+00  0.00000000E+00  0.00000000E+00
  0.00000000E+00  0.00000000E+00  0.00000000E+00
  0.00000000E+00  0.00000000E+00  0.00000000E+00
  0.00000000E+00  0.00000000E+00  0.00000000E+00
  0.00000000E+00  0.00000000E+00  0.00000000E+00
  0.00000000E+00  0.00000000E+00  0.00000000E+00
  0.00000000E+00  0.00000000E+00  0.00000000E+00
  0.00000000E+00  0.00000000E+00  0.00000000E+00
  0.00000000E+00  0.00000000E+00  0.00000000E+00
  0.00000000E+00  0.00000000E+00  0.00000000E+00
  0.00000000E+00  0.00000000E+00  0.00000000E+00
  0.00000000E+00  0.00000000E+00  0.00000000E+00
  0.00000000E+00  0.00000000E+00  0.00000000E+00
  0.00000000E+00  0.00000000E+00  0.00000000E+00
  0.00000000E+00  0.00000000E+00  0.00000000E+00
  0.00000000E+00  0.00000000E+00  0.00000000E+00
  0.00000000E+00  0.00000000E+00  0.00000000E+00
  0.00000000E+00  0.00000000E+00  0.00000000E+00
  0.00000000E+00  0.00000000E+00  0.00000000E+00
  0.00000000E+00  0.00000000E+00  0.00000000E+00
  0.00000000E+00  0.00000000E+00  0.00000000E+00
  0.00000000E+00  0.00000000E+00  0.00000000E+00
  0.00000000E+00  0.00000000E+00  0.00000000E+00
  0.00000000E+00  0.00000000E+00  0.00000000E+00
  0.00000000E+00  0.00000000E+00  0.00000000E+00
  0.00000000E+00  0.00000000E+00  0.00000000E+00
  0.00000000E+00  0.00000000E+00  0.00000000E+00
  0.00000000E+00  0.00000000E+00  0.00000000E+00
  0.00000000E+00  0.00000000E+00  0.00000000E+00
  0.00000000E+00  0.00000000E+00  0.00000000E+00
  0.00000000E+00  0.00000000E+00  0.00000000E+00
  0.00000000E+00  0.00000000E+00  0.00000000E+00
  0.00000000E+00  0.00000000E+00  0.00000000E+00
  0.00000000E+00  0.00000000E+00  0.00000000E+00
  0.00000000E+00  0.00000000E+00  0.00000000E+00
  0.00000000E+00  0.00000000E+00  0.00000000E+00
  0.00000000E+00  0.00000000E+00  0.00000000E+00
  0.00000000E+00  0.00000000E+00  0.00000000E+00
  0.00000000E+00  0.00000000E+00  0.00000000E+00
