XCrySDen XSF file                       
   1.00000000000000     
     8.7557991760000000    0.0014347150000000    0.0000000000000000
    -4.3767975578999998    7.6214061294000004    0.0000000000000000
     0.0000000000000000    0.0000000000000000   37.2496528624999996
   O    Si   C    Fe   H 
    35    17     3     1    10
Selective dynamics
Direct
  0.9273037211837820  0.1465930633435793  0.1603715192511111   T   T   T
  0.8286896550647262  0.3259597814923803  0.2923126327109246   T   T   T
  0.0379925746684846  0.1949462365817930  0.2888500616025403   T   T   T
  0.8269991352649116  0.3864433813012532  0.1586690177804956   T   T   T
  0.7229202822667381  0.3403523000708077  0.2260997455207293   T   T   T
  0.0647279147438484  0.4085500082495654  0.1130123635514140   T   T   T
  0.5931888398786161  0.4778518338961951  0.1793525038788941   T   T   T
  0.1502563018975316  0.4705549921709912  0.1819290248978274   T   T   T
  0.4871314103184087  0.7083006744488305  0.1679678460005367   T   T   T
  0.1852303832089933  0.5466036744280699  0.2943332153780033   T   T   T
  0.3609122232991409  0.6648598446484381  0.2338197248037481   T   T   T
  0.6290644098356951  0.6222917515153850  0.1152482942893919   T   T   T
  0.8306890579182208  0.8125975632912757  0.1694275200429074   T   T   T
  0.2557805782731427  0.8096069936024065  0.1830798321049397   T   T   T
  0.1576283475405700  0.0026896745149344  0.2646292118545684   T   T   T
  0.3692061616555923  0.8928299154252011  0.2827035144823963   T   T   T
  0.1641679671662643  0.0534665102443593  0.1776252551372836   T   T   T
  0.9223428460606339  0.0294099233241675  0.2256409470832583   T   T   T
  0.2900837808220196  0.9709866359421967  0.1204990100096174   T   T   T
  0.5007332165658129  0.1412884783728619  0.1755917160997047   T   T   T
  0.4942837170804143  0.2423212414886255  0.2798436500635302   T   T   T
  0.2827906869454666  0.0433615005958402  0.3330432889299988   T   T   T
  0.0207356552136760  0.3321468011376528  0.3492340578066154   T   T   T
  0.8519026548236255  0.2830175594713253  0.0551449434329641   F   F   F
  0.0951290703909677  0.1962062500681228  0.0664311962619948   F   F   F
  0.6435061004821563  0.2870409626520285  0.0062649442898532   F   F   F
  0.5342505975073450  0.6405541733069029  0.0487701726162655   F   F   F
  0.7536336798323902  0.5232028949451859  0.0605608865222749   F   F   F
  0.1884386539624359  0.5237256191923763  0.0485992448488659   F   F   F
  0.4053503219012455  0.7543798795387815  0.0000624435349366   F   F   F
  0.8628040147043095  0.8597701015906765  0.0708431568407093   F   F   F
  0.1980164363965571  0.9666622901026898  0.0524192536023804   F   F   F
  0.4136195077532392  0.8496939362550080  0.0695734000412358   F   F   F
  0.9973891234368253  0.9975160622311918  0.0056476767924920   F   F   F
  0.5247471974274660  0.1914274233066635  0.0742682357393178   F   F   F
  0.6596970604863484  0.3364427222387371  0.1848515254667891   T   T   T
  0.6994435588182876  0.3714630424520592  0.2684058155996563   T   T   T
  0.0188827492089606  0.3544388355133959  0.3054661395402262   T   T   T
  0.9928356251758533  0.3528894875266448  0.1537881936442663   T   T   T
  0.3138845859995403  0.6641629854825615  0.1915937057433672   T   T   T
  0.6364051539086346  0.6567929595667045  0.1580650679516397   T   T   T
  0.3642742736212247  0.7073196974000178  0.2763165609583405   T   T   T
  0.9624749317513310  0.0103317721394522  0.1836665025186668   T   T   T
  0.3268949680608240  0.0495274126091332  0.2900305207926154   T   T   T
  0.3029601606411089  0.9943604943310820  0.1638727119039448   T   T   T
  0.9720267613715882  0.0085977990607933  0.2671634107150530   T   T   T
  0.6910775286213138  0.3220183334983560  0.0490122419862331   F   F   F
  0.0488218800347937  0.3525782393554096  0.0710278297026363   F   F   F
  0.6956272616535770  0.6628020981124365  0.0740326899200809   F   F   F
  0.3826362099072469  0.6925289029972745  0.0420185392271293   F   F   F
  0.3577053617196455  0.9957002245921984  0.0791641739826403   F   F   F
  0.0343120767440013  0.0047479128305739  0.0487926426243206   F   F   F
  0.5802882026237488  0.7675030009009091  0.2972755198687241   T   T   T
  0.7972212928134070  0.6078404988002541  0.2784873603888406   T   T   T
  0.8173818562693586  0.7301650733600182  0.3497593244728953   T   T   T
  0.7702986087717856  0.7620718819149129  0.2999770561081530   T   T   T
  0.0337559888581400  0.4290258308154442  0.3637911460190059   T   T   T
  0.2550800892914647  0.1306719230601159  0.3417702711454770   T   T   T
  0.6235368771660892  0.8785364822691314  0.3168710846282463   T   T   T
  0.9540577962323805  0.7570946219817769  0.3508676271770754   T   T   T
  0.8070696797679806  0.8335088960950432  0.3643661354310901   T   T   T
  0.7267337110266956  0.6009653817693282  0.3611485401640857   T   T   T
  0.9436157569112753  0.6679629963622042  0.2796595228958758   T   T   T
  0.5597210424564452  0.3178860854139103  0.9966964024348286   F   F   F
  0.3228679134789729  0.7872232072001992  0.9905822783424298   F   F   F
  0.8930907648007320  0.0009213088981426  0.9978161175675808   F   F   F
 
  0.00000000E+00  0.00000000E+00  0.00000000E+00
  0.00000000E+00  0.00000000E+00  0.00000000E+00
  0.00000000E+00  0.00000000E+00  0.00000000E+00
  0.00000000E+00  0.00000000E+00  0.00000000E+00
  0.00000000E+00  0.00000000E+00  0.00000000E+00
  0.00000000E+00  0.00000000E+00  0.00000000E+00
  0.00000000E+00  0.00000000E+00  0.00000000E+00
  0.00000000E+00  0.00000000E+00  0.00000000E+00
  0.00000000E+00  0.00000000E+00  0.00000000E+00
  0.00000000E+00  0.00000000E+00  0.00000000E+00
  0.00000000E+00  0.00000000E+00  0.00000000E+00
  0.00000000E+00  0.00000000E+00  0.00000000E+00
  0.00000000E+00  0.00000000E+00  0.00000000E+00
  0.00000000E+00  0.00000000E+00  0.00000000E+00
  0.00000000E+00  0.00000000E+00  0.00000000E+00
  0.00000000E+00  0.00000000E+00  0.00000000E+00
  0.00000000E+00  0.00000000E+00  0.00000000E+00
  0.00000000E+00  0.00000000E+00  0.00000000E+00
  0.00000000E+00  0.00000000E+00  0.00000000E+00
  0.00000000E+00  0.00000000E+00  0.00000000E+00
  0.00000000E+00  0.00000000E+00  0.00000000E+00
  0.00000000E+00  0.00000000E+00  0.00000000E+00
  0.00000000E+00  0.00000000E+00  0.00000000E+00
  0.00000000E+00  0.00000000E+00  0.00000000E+00
  0.00000000E+00  0.00000000E+00  0.00000000E+00
  0.00000000E+00  0.00000000E+00  0.00000000E+00
  0.00000000E+00  0.00000000E+00  0.00000000E+00
  0.00000000E+00  0.00000000E+00  0.00000000E+00
  0.00000000E+00  0.00000000E+00  0.00000000E+00
  0.00000000E+00  0.00000000E+00  0.00000000E+00
  0.00000000E+00  0.00000000E+00  0.00000000E+00
  0.00000000E+00  0.00000000E+00  0.00000000E+00
  0.00000000E+00  0.00000000E+00  0.00000000E+00
  0.00000000E+00  0.00000000E+00  0.00000000E+00
  0.00000000E+00  0.00000000E+00  0.00000000E+00
  0.00000000E+00  0.00000000E+00  0.00000000E+00
  0.00000000E+00  0.00000000E+00  0.00000000E+00
  0.00000000E+00  0.00000000E+00  0.00000000E+00
  0.00000000E+00  0.00000000E+00  0.00000000E+00
  0.00000000E+00  0.00000000E+00  0.00000000E+00
  0.00000000E+00  0.00000000E+00  0.00000000E+00
  0.00000000E+00  0.00000000E+00  0.00000000E+00
  0.00000000E+00  0.00000000E+00  0.00000000E+00
  0.00000000E+00  0.00000000E+00  0.00000000E+00
  0.00000000E+00  0.00000000E+00  0.00000000E+00
  0.00000000E+00  0.00000000E+00  0.00000000E+00
  0.00000000E+00  0.00000000E+00  0.00000000E+00
  0.00000000E+00  0.00000000E+00  0.00000000E+00
  0.00000000E+00  0.00000000E+00  0.00000000E+00
  0.00000000E+00  0.00000000E+00  0.00000000E+00
  0.00000000E+00  0.00000000E+00  0.00000000E+00
  0.00000000E+00  0.00000000E+00  0.00000000E+00
  0.00000000E+00  0.00000000E+00  0.00000000E+00
  0.00000000E+00  0.00000000E+00  0.00000000E+00
  0.00000000E+00  0.00000000E+00  0.00000000E+00
  0.00000000E+00  0.00000000E+00  0.00000000E+00
  0.00000000E+00  0.00000000E+00  0.00000000E+00
  0.00000000E+00  0.00000000E+00  0.00000000E+00
  0.00000000E+00  0.00000000E+00  0.00000000E+00
  0.00000000E+00  0.00000000E+00  0.00000000E+00
  0.00000000E+00  0.00000000E+00  0.00000000E+00
  0.00000000E+00  0.00000000E+00  0.00000000E+00
  0.00000000E+00  0.00000000E+00  0.00000000E+00
  0.00000000E+00  0.00000000E+00  0.00000000E+00
  0.00000000E+00  0.00000000E+00  0.00000000E+00
  0.00000000E+00  0.00000000E+00  0.00000000E+00
