XCrySDen XSF file                       
   1.00000000000000     
     8.7557991760000000    0.0014347150000000    0.0000000000000000
    -4.3767975578999998    7.6214061294000004    0.0000000000000000
     0.0000000000000000    0.0000000000000000   37.2496528624999996
   O    Si   C    Fe   H 
    35    17     2     1     6
Selective dynamics
Direct
  0.9308686483630992  0.1622991023258588  0.1656834455805214   T   T   T
  0.8575960574075721  0.3081917469306856  0.2853566763773689   T   T   T
  0.0344461748829130  0.1457881468374483  0.2941648901221617   T   T   T
  0.8389055223760469  0.4065497478775274  0.1590855451030831   T   T   T
  0.7219507867575761  0.3459808584274873  0.2255715107416620   T   T   T
  0.0646059567294252  0.4046672458547357  0.1133170592316959   T   T   T
  0.6034360100622792  0.4959176570328990  0.1803422497594183   T   T   T
  0.1632728966259461  0.4898811658516873  0.1813357285806049   T   T   T
  0.4994464010629464  0.7274373438213275  0.1680084741330040   T   T   T
  0.2115509523092652  0.4982365327483806  0.2912863213283528   T   T   T
  0.3739881093551920  0.6831913601570542  0.2339668255187848   T   T   T
  0.6275426633451976  0.6233334981140375  0.1151809424192587   T   T   T
  0.8415084250631476  0.8278544378984757  0.1662694828196703   T   T   T
  0.2689520435788780  0.8289268494926989  0.1843148474629398   T   T   T
  0.1816227709304152 -0.0077901968932494  0.2619747399004902   T   T   T
  0.3425563997734677  0.8440256365393852  0.2928400463716964   T   T   T
  0.1734824263337440  0.0697644609176158  0.1765776992074260   T   T   T
  0.9302574784690010  0.0105770921088819  0.2272184466704858   T   T   T
  0.2892824812963176  0.9708072813400036  0.1203641679023512   T   T   T
  0.5100357230722747  0.1598511041460695  0.1724202798112957   T   T   T
  0.5153522603037847  0.1951859848453650  0.2821017082272650   T   T   T
  0.2689175275718783  0.0374883054028378  0.3332381795389149   T   T   T
  0.0189754909014181  0.3208600351078382  0.3482111542828665   T   T   T
  0.8519290592831936  0.2831512378372096  0.0551449455000963   F   F   F
  0.0951007800226762  0.1962056325427852  0.0664311973895266   F   F   F
  0.6435122639508180  0.2871351333529475  0.0062649441824689   F   F   F
  0.5341793733256353  0.6405944727190089  0.0487701749518550   F   F   F
  0.7536053152078566  0.5232955158714461  0.0605608868175764   F   F   F
  0.1883570345577468  0.5237117784525367  0.0485992416273646   F   F   F
  0.4052454233984548  0.7543852391140078  0.0000624435349366   F   F   F
  0.8627220604521284  0.8598515769208817  0.0708431599011377   F   F   F
  0.1978518149578221  0.9666086994911609  0.0524192516963211   F   F   F
  0.4134972603595273  0.8496917911639912  0.0695734043097360   F   F   F
  0.9972936637028056  0.9976098862507214  0.0056476771414893   F   F   F
  0.5247602006511727  0.1915081818089135  0.0742682395245922   F   F   F
  0.6669738286921156  0.3515852815309313  0.1842177157950954   T   T   T
  0.7088039132566102  0.3467938398156573  0.2688914852704514   T   T   T
  0.0318173876746096  0.3243959357539887  0.3042191225014785   T   T   T
  0.0004933778127020  0.3657125952684878  0.1548821295785077   T   T   T
  0.3262300433322665  0.6821975724431307  0.1918817254117735   T   T   T
  0.6439601132068816  0.6702040082522546  0.1575595084776189   T   T   T
  0.3720762556142976  0.6869501761477654  0.2775669580777531   T   T   T
  0.9704276888962995  0.0179681236967847  0.1842467830476361   T   T   T
  0.3286535216893173  0.0206885840680105  0.2923470605416111   T   T   T
  0.3107620158946566  0.0077170639752950  0.1633091142478732   T   T   T
  0.9873293946753444  0.9775288888825838  0.2671196123006135   T   T   T
  0.6910814158987222  0.3221181295740294  0.0490122440533654   F   F   F
  0.0487595369705716  0.3525542246851003  0.0710278288167245   F   F   F
  0.6955669792440489  0.6628706981160590  0.0740326861616509   F   F   F
  0.3825407958196010  0.6925357489639055  0.0420185394955936   F   F   F
  0.3575500675001422  0.9956737883685420  0.0791641802645771   F   F   F
  0.0343144165852252  0.0047539716394382  0.0487926409061856   F   F   F
  0.5881820678338524  0.7449589748581061  0.2968664248968770   T   T   T
  0.7722095921528622  0.5683912508539938  0.2861330179124053   T   T   T
  0.7816002113765781  0.7422430083370305  0.3025877292183213   T   T   T
  0.0475261647653919  0.4298866516132324  0.3600163322999576   T   T   T
  0.2285590229332072  0.1213207184835995  0.3363966706599440   T   T   T
  0.6326371852644755  0.8519754658284372  0.3177477117245339   T   T   T
  0.5597134410968891  0.3179615437868222  0.9966963901662567   F   F   F
  0.3227489896947091  0.7872099345341610  0.9905822695638307   F   F   F
  0.8931745130129656  0.0010892845739505  0.9978161294603112   F   F   F
 
  0.00000000E+00  0.00000000E+00  0.00000000E+00
  0.00000000E+00  0.00000000E+00  0.00000000E+00
  0.00000000E+00  0.00000000E+00  0.00000000E+00
  0.00000000E+00  0.00000000E+00  0.00000000E+00
  0.00000000E+00  0.00000000E+00  0.00000000E+00
  0.00000000E+00  0.00000000E+00  0.00000000E+00
  0.00000000E+00  0.00000000E+00  0.00000000E+00
  0.00000000E+00  0.00000000E+00  0.00000000E+00
  0.00000000E+00  0.00000000E+00  0.00000000E+00
  0.00000000E+00  0.00000000E+00  0.00000000E+00
  0.00000000E+00  0.00000000E+00  0.00000000E+00
  0.00000000E+00  0.00000000E+00  0.00000000E+00
  0.00000000E+00  0.00000000E+00  0.00000000E+00
  0.00000000E+00  0.00000000E+00  0.00000000E+00
  0.00000000E+00  0.00000000E+00  0.00000000E+00
  0.00000000E+00  0.00000000E+00  0.00000000E+00
  0.00000000E+00  0.00000000E+00  0.00000000E+00
  0.00000000E+00  0.00000000E+00  0.00000000E+00
  0.00000000E+00  0.00000000E+00  0.00000000E+00
  0.00000000E+00  0.00000000E+00  0.00000000E+00
  0.00000000E+00  0.00000000E+00  0.00000000E+00
  0.00000000E+00  0.00000000E+00  0.00000000E+00
  0.00000000E+00  0.00000000E+00  0.00000000E+00
  0.00000000E+00  0.00000000E+00  0.00000000E+00
  0.00000000E+00  0.00000000E+00  0.00000000E+00
  0.00000000E+00  0.00000000E+00  0.00000000E+00
  0.00000000E+00  0.00000000E+00  0.00000000E+00
  0.00000000E+00  0.00000000E+00  0.00000000E+00
  0.00000000E+00  0.00000000E+00  0.00000000E+00
  0.00000000E+00  0.00000000E+00  0.00000000E+00
  0.00000000E+00  0.00000000E+00  0.00000000E+00
  0.00000000E+00  0.00000000E+00  0.00000000E+00
  0.00000000E+00  0.00000000E+00  0.00000000E+00
  0.00000000E+00  0.00000000E+00  0.00000000E+00
  0.00000000E+00  0.00000000E+00  0.00000000E+00
  0.00000000E+00  0.00000000E+00  0.00000000E+00
  0.00000000E+00  0.00000000E+00  0.00000000E+00
  0.00000000E+00  0.00000000E+00  0.00000000E+00
  0.00000000E+00  0.00000000E+00  0.00000000E+00
  0.00000000E+00  0.00000000E+00  0.00000000E+00
  0.00000000E+00  0.00000000E+00  0.00000000E+00
  0.00000000E+00  0.00000000E+00  0.00000000E+00
  0.00000000E+00  0.00000000E+00  0.00000000E+00
  0.00000000E+00  0.00000000E+00  0.00000000E+00
  0.00000000E+00  0.00000000E+00  0.00000000E+00
  0.00000000E+00  0.00000000E+00  0.00000000E+00
  0.00000000E+00  0.00000000E+00  0.00000000E+00
  0.00000000E+00  0.00000000E+00  0.00000000E+00
  0.00000000E+00  0.00000000E+00  0.00000000E+00
  0.00000000E+00  0.00000000E+00  0.00000000E+00
  0.00000000E+00  0.00000000E+00  0.00000000E+00
  0.00000000E+00  0.00000000E+00  0.00000000E+00
  0.00000000E+00  0.00000000E+00  0.00000000E+00
  0.00000000E+00  0.00000000E+00  0.00000000E+00
  0.00000000E+00  0.00000000E+00  0.00000000E+00
  0.00000000E+00  0.00000000E+00  0.00000000E+00
  0.00000000E+00  0.00000000E+00  0.00000000E+00
  0.00000000E+00  0.00000000E+00  0.00000000E+00
  0.00000000E+00  0.00000000E+00  0.00000000E+00
  0.00000000E+00  0.00000000E+00  0.00000000E+00
  0.00000000E+00  0.00000000E+00  0.00000000E+00
