XCrySDen XSF file                       
   1.00000000000000     
     8.7557991760000000    0.0014347150000000    0.0000000000000000
    -4.3767975578999998    7.6214061294000004    0.0000000000000000
     0.0000000000000000    0.0000000000000000   37.2496528624999996
   O    Si   C    Fe   H 
    35    17     3     1    10
Selective dynamics
Direct
  0.9319381979214995  0.1586544129439245  0.1645069099057335   T   T   T
  0.8644661571862675  0.3633409823419733  0.2911377453109995   T   T   T
  0.9944765276595231  0.1503241245168692  0.2912665173689192   T   T   T
  0.8384804385837712  0.4015775750488975  0.1584386329062970   T   T   T
  0.7314687958955224  0.3450315100712250  0.2253484312708472   T   T   T
  0.0673911572064847  0.4061078836532020  0.1132081870809906   T   T   T
  0.6059038802791151  0.4925965014626929  0.1803813146111311   T   T   T
  0.1625649955724709  0.4856749634057506  0.1815438180785324   T   T   T
  0.5000264422748959  0.7227155826299495  0.1694525010441881   T   T   T
  0.2132729659257368  0.5022979848120462  0.2931383908047151   T   T   T
  0.3645397994696941  0.6835580632167294  0.2347747907802897   T   T   T
  0.6251390375947425  0.6215733891486305  0.1151192980539435   T   T   T
  0.8426530501731337  0.8244945563136292  0.1653757675312740   T   T   T
  0.2665404424751306  0.8243243155764693  0.1834364550681264   T   T   T
  0.1815115120733394  0.0237956001511456  0.2636363436867485   T   T   T
  0.3118647591341135  0.8415052060619802  0.2921868095513225   T   T   T
  0.1732997345134892  0.0670352039709952  0.1770744393842931   T   T   T
  0.9220154321277959  0.0044611821421322  0.2262974502119035   T   T   T
  0.2906401320042561  0.9728785120608731  0.1203843170565619   T   T   T
  0.5098381294029447  0.1557995437055916  0.1735004896588146   T   T   T
  0.5200645573055342  0.1931660760900325  0.2805227211982764   T   T   T
  0.2847481926801806  0.0619480020131300  0.3339064987742999   T   T   T
  0.0215323951671808  0.3218532758461254  0.3494825635170320   T   T   T
  0.8519026548236255  0.2830175594713253  0.0551449434329641   F   F   F
  0.0951290703909677  0.1962062500681228  0.0664311962619948   F   F   F
  0.6435061004821563  0.2870409626520285  0.0062649442898532   F   F   F
  0.5342505975073450  0.6405541733069029  0.0487701726162655   F   F   F
  0.7536336798323902  0.5232028949451859  0.0605608865222749   F   F   F
  0.1884386539624359  0.5237256191923763  0.0485992448488659   F   F   F
  0.4053503219012455  0.7543798795387815  0.0000624435349366   F   F   F
  0.8628040147043095  0.8597701015906765  0.0708431568407093   F   F   F
  0.1980164363965571  0.9666622901026898  0.0524192536023804   F   F   F
  0.4136195077532392  0.8496939362550080  0.0695734000412358   F   F   F
  0.9973891234368253  0.9975160622311918  0.0056476767924920   F   F   F
  0.5247471974274660  0.1914274233066635  0.0742682357393178   F   F   F
  0.6693269399418230  0.3481531792986333  0.1841880641712074   T   T   T
  0.7062135003885158  0.3595961143598315  0.2680423247905192   T   T   T
  0.0255100639386773  0.3368373211364479  0.3053166047782773   T   T   T
  0.0015421072043016  0.3627019483688535  0.1545977291659045   T   T   T
  0.3240371651782760  0.6788798318996576  0.1922091285619930   T   T   T
  0.6440997700719877  0.6667596877123519  0.1576733108722948   T   T   T
  0.3622156530857578  0.6950229562808637  0.2783205285974413   T   T   T
  0.9690682219521830  0.0141453746554632  0.1838954419980185   T   T   T
  0.3263638792341356  0.0327760229684434  0.2920904097721405   T   T   T
  0.3105322105540069  0.0058803853877502  0.1634438155886271   T   T   T
  0.9749421155275819  0.9811897186786483  0.2675577414284745   T   T   T
  0.6910775286213138  0.3220183334983560  0.0490122419862331   F   F   F
  0.0488218800347937  0.3525782393554096  0.0710278297026363   F   F   F
  0.6956272616535770  0.6628020981124365  0.0740326899200809   F   F   F
  0.3826362099072469  0.6925289029972745  0.0420185392271293   F   F   F
  0.3577053617196455  0.9957002245921984  0.0791641739826403   F   F   F
  0.0343120767440013  0.0047479128305739  0.0487926426243206   F   F   F
  0.5791914397523967  0.7646765235095567  0.2977167232288114   T   T   T
  0.7303341315435550  0.5773670069583785  0.2787383571078246   T   T   T
  0.8837255218328769  0.7449833698839564  0.3553774440063908   T   T   T
  0.7663879654846444  0.7471443719050339  0.3005523827140305   T   T   T
  0.0733395733650234  0.4319557607430614  0.3623618088448569   T   T   T
  0.2768964968457919  0.1663809194336355  0.3384831195308071   T   T   T
  0.6445137456688618  0.8974986509175455  0.3106569565567031   T   T   T
  0.9455051525581726  0.8179166185705530  0.3283634097861140   T   T   T
  0.8239351968276120  0.6023840878750333  0.3551728280950629   T   T   T
  0.7997193420608798  0.7864437240384057  0.3689191102847881   T   T   T
  0.0119204541433463  0.8043021327574914  0.3690672462254013   T   T   T
  0.5597210424564452  0.3178860854139103  0.9966964024348286   F   F   F
  0.3228679134789729  0.7872232072001992  0.9905822783424298   F   F   F
  0.8930907648007320  0.0009213088981426  0.9978161175675808   F   F   F
 
  0.00000000E+00  0.00000000E+00  0.00000000E+00
  0.00000000E+00  0.00000000E+00  0.00000000E+00
  0.00000000E+00  0.00000000E+00  0.00000000E+00
  0.00000000E+00  0.00000000E+00  0.00000000E+00
  0.00000000E+00  0.00000000E+00  0.00000000E+00
  0.00000000E+00  0.00000000E+00  0.00000000E+00
  0.00000000E+00  0.00000000E+00  0.00000000E+00
  0.00000000E+00  0.00000000E+00  0.00000000E+00
  0.00000000E+00  0.00000000E+00  0.00000000E+00
  0.00000000E+00  0.00000000E+00  0.00000000E+00
  0.00000000E+00  0.00000000E+00  0.00000000E+00
  0.00000000E+00  0.00000000E+00  0.00000000E+00
  0.00000000E+00  0.00000000E+00  0.00000000E+00
  0.00000000E+00  0.00000000E+00  0.00000000E+00
  0.00000000E+00  0.00000000E+00  0.00000000E+00
  0.00000000E+00  0.00000000E+00  0.00000000E+00
  0.00000000E+00  0.00000000E+00  0.00000000E+00
  0.00000000E+00  0.00000000E+00  0.00000000E+00
  0.00000000E+00  0.00000000E+00  0.00000000E+00
  0.00000000E+00  0.00000000E+00  0.00000000E+00
  0.00000000E+00  0.00000000E+00  0.00000000E+00
  0.00000000E+00  0.00000000E+00  0.00000000E+00
  0.00000000E+00  0.00000000E+00  0.00000000E+00
  0.00000000E+00  0.00000000E+00  0.00000000E+00
  0.00000000E+00  0.00000000E+00  0.00000000E+00
  0.00000000E+00  0.00000000E+00  0.00000000E+00
  0.00000000E+00  0.00000000E+00  0.00000000E+00
  0.00000000E+00  0.00000000E+00  0.00000000E+00
  0.00000000E+00  0.00000000E+00  0.00000000E+00
  0.00000000E+00  0.00000000E+00  0.00000000E+00
  0.00000000E+00  0.00000000E+00  0.00000000E+00
  0.00000000E+00  0.00000000E+00  0.00000000E+00
  0.00000000E+00  0.00000000E+00  0.00000000E+00
  0.00000000E+00  0.00000000E+00  0.00000000E+00
  0.00000000E+00  0.00000000E+00  0.00000000E+00
  0.00000000E+00  0.00000000E+00  0.00000000E+00
  0.00000000E+00  0.00000000E+00  0.00000000E+00
  0.00000000E+00  0.00000000E+00  0.00000000E+00
  0.00000000E+00  0.00000000E+00  0.00000000E+00
  0.00000000E+00  0.00000000E+00  0.00000000E+00
  0.00000000E+00  0.00000000E+00  0.00000000E+00
  0.00000000E+00  0.00000000E+00  0.00000000E+00
  0.00000000E+00  0.00000000E+00  0.00000000E+00
  0.00000000E+00  0.00000000E+00  0.00000000E+00
  0.00000000E+00  0.00000000E+00  0.00000000E+00
  0.00000000E+00  0.00000000E+00  0.00000000E+00
  0.00000000E+00  0.00000000E+00  0.00000000E+00
  0.00000000E+00  0.00000000E+00  0.00000000E+00
  0.00000000E+00  0.00000000E+00  0.00000000E+00
  0.00000000E+00  0.00000000E+00  0.00000000E+00
  0.00000000E+00  0.00000000E+00  0.00000000E+00
  0.00000000E+00  0.00000000E+00  0.00000000E+00
  0.00000000E+00  0.00000000E+00  0.00000000E+00
  0.00000000E+00  0.00000000E+00  0.00000000E+00
  0.00000000E+00  0.00000000E+00  0.00000000E+00
  0.00000000E+00  0.00000000E+00  0.00000000E+00
  0.00000000E+00  0.00000000E+00  0.00000000E+00
  0.00000000E+00  0.00000000E+00  0.00000000E+00
  0.00000000E+00  0.00000000E+00  0.00000000E+00
  0.00000000E+00  0.00000000E+00  0.00000000E+00
  0.00000000E+00  0.00000000E+00  0.00000000E+00
  0.00000000E+00  0.00000000E+00  0.00000000E+00
  0.00000000E+00  0.00000000E+00  0.00000000E+00
  0.00000000E+00  0.00000000E+00  0.00000000E+00
  0.00000000E+00  0.00000000E+00  0.00000000E+00
  0.00000000E+00  0.00000000E+00  0.00000000E+00
