XCrySDen XSF file                       
   1.00000000000000     
     8.7557991760000000    0.0014347150000000    0.0000000000000000
    -4.3767975578999998    7.6214061294000004    0.0000000000000000
     0.0000000000000000    0.0000000000000000   37.2496528624999996
   O    Si   C    Fe   H 
    35    17     2     1     5
Selective dynamics
Direct
  0.9326853742292684  0.1592014097382885  0.1651641650015854   T   T   T
  0.8537606737483650  0.3232325135350447  0.2896735974120327   T   T   T
  0.0386114492481703  0.1658161104776340  0.2893239411551862   T   T   T
  0.8403094927814808  0.4034485728511620  0.1606118216184292   T   T   T
  0.7232347848298247  0.3507075023949516  0.2273427846655740   T   T   T
  0.0625411655830720  0.4042127165041616  0.1132981689732283   T   T   T
  0.6050382266224879  0.4945481580378375  0.1804316038108817   T   T   T
  0.1668352704640257  0.4867580307881813  0.1809092145142220   T   T   T
  0.5033176700462680  0.7275675961433126  0.1684904732149280   T   T   T
  0.2127706898278135  0.5131936217388547  0.2934220373643176   T   T   T
  0.3705435232535523  0.6815272131776543  0.2338696731623990   T   T   T
  0.6251502758128663  0.6205018669888299  0.1150098718951280   T   T   T
  0.8448802897162241  0.8251575516873239  0.1648304484674359   T   T   T
  0.2684789777664680  0.8253473719356547  0.1835661205085692   T   T   T
  0.1735231245161585 -0.0108243115360494  0.2639787293678523   T   T   T
  0.3613101324909349  0.8618582938330634  0.2918038814219488   T   T   T
  0.1752427803002138  0.0682964667296680  0.1771459063311772   T   T   T
  0.9232606052860730 -0.0004774194412651  0.2262929768574166   T   T   T
  0.2927562679888970  0.9744184082935399  0.1205761261941860   T   T   T
  0.5114628925073086  0.1576884743165199  0.1742420799652260   T   T   T
  0.5101382882849417  0.2101387065581905  0.2830601659031535   T   T   T
  0.2601005609656105  0.0434071607537246  0.3329994235877343   T   T   T
  0.0137202981921259  0.3256170150369313  0.3488452785546522   T   T   T
  0.8519818593873438  0.2834186516467199  0.0551449434329641   F   F   F
  0.0950442813585539  0.1962045603075069  0.0664311962619948   F   F   F
  0.6435243545405314  0.2873233218091329  0.0062649442898532   F   F   F
  0.5340369202775435  0.6406750573734783  0.0487701726162655   F   F   F
  0.7535486377451335  0.5234808124285451  0.0605608865222749   F   F   F
  0.1881938710730751  0.5236842031070807  0.0485992448488659   F   F   F
  0.4050355301758728  0.7543958151331296  0.0000624435349366   F   F   F
  0.8625582439210859  0.8600145909380998  0.0708431568407093   F   F   F
  0.1975223861222020  0.9665012579837011  0.0524192536023804   F   F   F
  0.4132527979460505  0.8496875760276268  0.0695734000412358   F   F   F
  0.9971028057547002  0.9977975602576521  0.0056476767924920   F   F   F
  0.5247863323140436  0.1916697596710080  0.0742682357393178   F   F   F
  0.6686032175851518  0.3506961994972179  0.1856485562731780   T   T   T
  0.7077038710731357  0.3589570376250779  0.2707109382575748   T   T   T
  0.0322062311779948  0.3343091540786877  0.3049393863146793   T   T   T
  0.0013167250057909  0.3629808376316067  0.1550168933891715   T   T   T
  0.3272375809899064  0.6802163731835571  0.1915262073113205   T   T   T
  0.6455150301744370  0.6680897062344746  0.1573851496735580   T   T   T
  0.3747075232933054  0.6943407035235710  0.2773251107957624   T   T   T
  0.9706585373510991  0.0137554179867642  0.1837374221483533   T   T   T
  0.3289899920254490  0.0283163561572829  0.2925746687155595   T   T   T
  0.3130879686588328  0.0074705622418570  0.1636698492953052   T   T   T
  0.9813257522232587  0.9829702280178011  0.2672596504547561   T   T   T
  0.6910891684543117  0.3223176199110469  0.0490122419862331   F   F   F
  0.0486350182725985  0.3525062405802117  0.0710278297026363   F   F   F
  0.6954463576606997  0.6630077372712790  0.0740326899200809   F   F   F
  0.3823500935843711  0.6925494255219533  0.0420185392271293   F   F   F
  0.3572397213142224  0.9956209305710644  0.0791641739826403   F   F   F
  0.0343190714739166  0.0047660184087590  0.0487926426243206   F   F   F
  0.5977034794874168  0.7557192448499457  0.2948447674835977   T   T   T
  0.7797928604116525  0.5837429007838258  0.2878037547902377   T   T   T
  0.7802585302889214  0.7562969607525815  0.3040686999452730   T   T   T
  0.1067191709414129  0.3194925843861354  0.3616314845009004   T   T   T
  0.3222711382188357  0.0269011879442448  0.3527408563843647   T   T   T
  0.5596981600817159  0.3181124259080974  0.9966964024348286   F   F   F
  0.3225111373083180  0.7871832555006435  0.9905822783424298   F   F   F
  0.8933420456724974  0.0014253680465899  0.9978161175675808   F   F   F
 
  0.00000000E+00  0.00000000E+00  0.00000000E+00
  0.00000000E+00  0.00000000E+00  0.00000000E+00
  0.00000000E+00  0.00000000E+00  0.00000000E+00
  0.00000000E+00  0.00000000E+00  0.00000000E+00
  0.00000000E+00  0.00000000E+00  0.00000000E+00
  0.00000000E+00  0.00000000E+00  0.00000000E+00
  0.00000000E+00  0.00000000E+00  0.00000000E+00
  0.00000000E+00  0.00000000E+00  0.00000000E+00
  0.00000000E+00  0.00000000E+00  0.00000000E+00
  0.00000000E+00  0.00000000E+00  0.00000000E+00
  0.00000000E+00  0.00000000E+00  0.00000000E+00
  0.00000000E+00  0.00000000E+00  0.00000000E+00
  0.00000000E+00  0.00000000E+00  0.00000000E+00
  0.00000000E+00  0.00000000E+00  0.00000000E+00
  0.00000000E+00  0.00000000E+00  0.00000000E+00
  0.00000000E+00  0.00000000E+00  0.00000000E+00
  0.00000000E+00  0.00000000E+00  0.00000000E+00
  0.00000000E+00  0.00000000E+00  0.00000000E+00
  0.00000000E+00  0.00000000E+00  0.00000000E+00
  0.00000000E+00  0.00000000E+00  0.00000000E+00
  0.00000000E+00  0.00000000E+00  0.00000000E+00
  0.00000000E+00  0.00000000E+00  0.00000000E+00
  0.00000000E+00  0.00000000E+00  0.00000000E+00
  0.00000000E+00  0.00000000E+00  0.00000000E+00
  0.00000000E+00  0.00000000E+00  0.00000000E+00
  0.00000000E+00  0.00000000E+00  0.00000000E+00
  0.00000000E+00  0.00000000E+00  0.00000000E+00
  0.00000000E+00  0.00000000E+00  0.00000000E+00
  0.00000000E+00  0.00000000E+00  0.00000000E+00
  0.00000000E+00  0.00000000E+00  0.00000000E+00
  0.00000000E+00  0.00000000E+00  0.00000000E+00
  0.00000000E+00  0.00000000E+00  0.00000000E+00
  0.00000000E+00  0.00000000E+00  0.00000000E+00
  0.00000000E+00  0.00000000E+00  0.00000000E+00
  0.00000000E+00  0.00000000E+00  0.00000000E+00
  0.00000000E+00  0.00000000E+00  0.00000000E+00
  0.00000000E+00  0.00000000E+00  0.00000000E+00
  0.00000000E+00  0.00000000E+00  0.00000000E+00
  0.00000000E+00  0.00000000E+00  0.00000000E+00
  0.00000000E+00  0.00000000E+00  0.00000000E+00
  0.00000000E+00  0.00000000E+00  0.00000000E+00
  0.00000000E+00  0.00000000E+00  0.00000000E+00
  0.00000000E+00  0.00000000E+00  0.00000000E+00
  0.00000000E+00  0.00000000E+00  0.00000000E+00
  0.00000000E+00  0.00000000E+00  0.00000000E+00
  0.00000000E+00  0.00000000E+00  0.00000000E+00
  0.00000000E+00  0.00000000E+00  0.00000000E+00
  0.00000000E+00  0.00000000E+00  0.00000000E+00
  0.00000000E+00  0.00000000E+00  0.00000000E+00
  0.00000000E+00  0.00000000E+00  0.00000000E+00
  0.00000000E+00  0.00000000E+00  0.00000000E+00
  0.00000000E+00  0.00000000E+00  0.00000000E+00
  0.00000000E+00  0.00000000E+00  0.00000000E+00
  0.00000000E+00  0.00000000E+00  0.00000000E+00
  0.00000000E+00  0.00000000E+00  0.00000000E+00
  0.00000000E+00  0.00000000E+00  0.00000000E+00
  0.00000000E+00  0.00000000E+00  0.00000000E+00
  0.00000000E+00  0.00000000E+00  0.00000000E+00
  0.00000000E+00  0.00000000E+00  0.00000000E+00
  0.00000000E+00  0.00000000E+00  0.00000000E+00
