XCrySDen XSF file                       
   1.00000000000000     
     8.7557991760000000    0.0014347150000000    0.0000000000000000
    -4.3767975578999998    7.6214061294000004    0.0000000000000000
     0.0000000000000000    0.0000000000000000   37.2496528624999996
   O    Si   C    Fe   H 
    35    17     3     1     7
Selective dynamics
Direct
  0.9458170818699986  0.1404012281835044  0.1573629774011604   T   T   T
  0.7406493826281837  0.2192509980740117  0.2928666097046820   T   T   T
  0.0085923499561258  0.1486495037631033  0.2910005174924411   T   T   T
  0.8423987533598962  0.3798536570960919  0.1613990155289548   T   T   T
  0.7127975667860809  0.3214721238998157  0.2268831676764731   T   T   T
  0.0688093111869633  0.4113468094654324  0.1127984675990345   T   T   T
  0.6051013212182146  0.4697126992526116  0.1780621427265960   T   T   T
  0.1677795472976203  0.4613749670146098  0.1812219095378350   T   T   T
  0.5064630116822878  0.7064922195921699  0.1740515002593118   T   T   T
  0.0595339313722990  0.4721170405421870  0.2786413237390827   T   T   T
  0.3449410953718423  0.6565635961864253  0.2369423353160769   T   T   T
  0.6284894224337672  0.6259585732390972  0.1155621540735965   T   T   T
  0.8456980797200538  0.8062525416532867  0.1690040895524934   T   T   T
  0.2646503798229087  0.8001241685987289  0.1818718050471809   T   T   T
  0.0810495648382624 -0.0890260816326632  0.2669664641306920   T   T   T
  0.2866481354841222  0.8016217484027413  0.2957947700277739   T   T   T
  0.1772253865920650  0.0476175505089450  0.1796200089514800   T   T   T
  0.9305438025155485  0.0350792594025401  0.2238361548165961   T   T   T
  0.2870507253975827  0.9663614541763312  0.1202445056898361   T   T   T
  0.5120910561932200  0.1317748160415632  0.1728601004653671   T   T   T
  0.4251463711846709  0.1109414034039547  0.2644682296524660   T   T   T
  0.2614537194466865  0.0512584502455506  0.3290128973049871   T   T   T
 -0.0137985358404472  0.3215064893577291  0.3450496883976108   T   T   T
  0.8519290592831936  0.2831512378372096  0.0551449455000963   F   F   F
  0.0951007800226762  0.1962056325427852  0.0664311973895266   F   F   F
  0.6435122639508180  0.2871351333529475  0.0062649441824689   F   F   F
  0.5341793733256353  0.6405944727190089  0.0487701749518550   F   F   F
  0.7536053152078566  0.5232955158714461  0.0605608868175764   F   F   F
  0.1883570345577468  0.5237117784525367  0.0485992416273646   F   F   F
  0.4052454233984548  0.7543852391140078  0.0000624435349366   F   F   F
  0.8627220604521284  0.8598515769208817  0.0708431599011377   F   F   F
  0.1978518149578221  0.9666086994911609  0.0524192516963211   F   F   F
  0.4134972603595273  0.8496917911639912  0.0695734043097360   F   F   F
  0.9972936637028056  0.9976098862507214  0.0056476771414893   F   F   F
  0.5247602006511727  0.1915081818089135  0.0742682395245922   F   F   F
  0.6662971186742771  0.3250767113256236  0.1846032437834724   T   T   T
  0.6250480771172712  0.2721069318429774  0.2666153505113393   T   T   T
  0.9485907200629512  0.2900074334298073  0.3016775358381553   T   T   T
  0.0061463968780351  0.3468797376152754  0.1536753252609900   T   T   T
  0.3206062969978272  0.6562770623599442  0.1932252682917388   T   T   T
  0.6478015233443972  0.6531599582719285  0.1588002018805249   T   T   T
  0.2676618773011049  0.6242430499586915  0.2779807034437766   T   T   T
  0.9746212312738111  0.0062584326950631  0.1830468121892622   T   T   T
  0.2604612241465363 -0.0296989950668548  0.2892952821052112   T   T   T
  0.3101665696778126  0.9863906993355126  0.1635540149426566   T   T   T
  0.9227692837333646  0.9641883799507482  0.2656794968387425   T   T   T
  0.6910814158987222  0.3221181295740294  0.0490122440533654   F   F   F
  0.0487595369705716  0.3525542246851003  0.0710278288167245   F   F   F
  0.6955669792440489  0.6628706981160590  0.0740326861616509   F   F   F
  0.3825407958196010  0.6925357489639055  0.0420185394955936   F   F   F
  0.3575500675001422  0.9956737883685420  0.0791641802645771   F   F   F
  0.0343144165852252  0.0047539716394382  0.0487926409061856   F   F   F
  0.4009104118218071  0.5668389171136933  0.3077793013335061   T   T   T
  0.6249845368552556  0.4708344093041390  0.2836479110864717   T   T   T
  0.4978536962883152  0.4936132688789227  0.2966455415660388   T   T   T
  0.6580476512524043  0.7359694372229578  0.2861660515247146   T   T   T
  0.9394393401753145  0.3863431254952740  0.3573713513583681   T   T   T
  0.1937702803705621  0.1116003017420273  0.3299044736976713   T   T   T
  0.7590254862595704  0.5990842045220756  0.2777948759607636   T   T   T
  0.3746114654300586  0.5659806310669050  0.3366004772737662   T   T   T
  0.5597134410968891  0.3179615437868222  0.9966963901662567   F   F   F
  0.3227489896947091  0.7872099345341610  0.9905822695638307   F   F   F
  0.8931745130129656  0.0010892845739505  0.9978161294603112   F   F   F
 
  0.00000000E+00  0.00000000E+00  0.00000000E+00
  0.00000000E+00  0.00000000E+00  0.00000000E+00
  0.00000000E+00  0.00000000E+00  0.00000000E+00
  0.00000000E+00  0.00000000E+00  0.00000000E+00
  0.00000000E+00  0.00000000E+00  0.00000000E+00
  0.00000000E+00  0.00000000E+00  0.00000000E+00
  0.00000000E+00  0.00000000E+00  0.00000000E+00
  0.00000000E+00  0.00000000E+00  0.00000000E+00
  0.00000000E+00  0.00000000E+00  0.00000000E+00
  0.00000000E+00  0.00000000E+00  0.00000000E+00
  0.00000000E+00  0.00000000E+00  0.00000000E+00
  0.00000000E+00  0.00000000E+00  0.00000000E+00
  0.00000000E+00  0.00000000E+00  0.00000000E+00
  0.00000000E+00  0.00000000E+00  0.00000000E+00
  0.00000000E+00  0.00000000E+00  0.00000000E+00
  0.00000000E+00  0.00000000E+00  0.00000000E+00
  0.00000000E+00  0.00000000E+00  0.00000000E+00
  0.00000000E+00  0.00000000E+00  0.00000000E+00
  0.00000000E+00  0.00000000E+00  0.00000000E+00
  0.00000000E+00  0.00000000E+00  0.00000000E+00
  0.00000000E+00  0.00000000E+00  0.00000000E+00
  0.00000000E+00  0.00000000E+00  0.00000000E+00
  0.00000000E+00  0.00000000E+00  0.00000000E+00
  0.00000000E+00  0.00000000E+00  0.00000000E+00
  0.00000000E+00  0.00000000E+00  0.00000000E+00
  0.00000000E+00  0.00000000E+00  0.00000000E+00
  0.00000000E+00  0.00000000E+00  0.00000000E+00
  0.00000000E+00  0.00000000E+00  0.00000000E+00
  0.00000000E+00  0.00000000E+00  0.00000000E+00
  0.00000000E+00  0.00000000E+00  0.00000000E+00
  0.00000000E+00  0.00000000E+00  0.00000000E+00
  0.00000000E+00  0.00000000E+00  0.00000000E+00
  0.00000000E+00  0.00000000E+00  0.00000000E+00
  0.00000000E+00  0.00000000E+00  0.00000000E+00
  0.00000000E+00  0.00000000E+00  0.00000000E+00
  0.00000000E+00  0.00000000E+00  0.00000000E+00
  0.00000000E+00  0.00000000E+00  0.00000000E+00
  0.00000000E+00  0.00000000E+00  0.00000000E+00
  0.00000000E+00  0.00000000E+00  0.00000000E+00
  0.00000000E+00  0.00000000E+00  0.00000000E+00
  0.00000000E+00  0.00000000E+00  0.00000000E+00
  0.00000000E+00  0.00000000E+00  0.00000000E+00
  0.00000000E+00  0.00000000E+00  0.00000000E+00
  0.00000000E+00  0.00000000E+00  0.00000000E+00
  0.00000000E+00  0.00000000E+00  0.00000000E+00
  0.00000000E+00  0.00000000E+00  0.00000000E+00
  0.00000000E+00  0.00000000E+00  0.00000000E+00
  0.00000000E+00  0.00000000E+00  0.00000000E+00
  0.00000000E+00  0.00000000E+00  0.00000000E+00
  0.00000000E+00  0.00000000E+00  0.00000000E+00
  0.00000000E+00  0.00000000E+00  0.00000000E+00
  0.00000000E+00  0.00000000E+00  0.00000000E+00
  0.00000000E+00  0.00000000E+00  0.00000000E+00
  0.00000000E+00  0.00000000E+00  0.00000000E+00
  0.00000000E+00  0.00000000E+00  0.00000000E+00
  0.00000000E+00  0.00000000E+00  0.00000000E+00
  0.00000000E+00  0.00000000E+00  0.00000000E+00
  0.00000000E+00  0.00000000E+00  0.00000000E+00
  0.00000000E+00  0.00000000E+00  0.00000000E+00
  0.00000000E+00  0.00000000E+00  0.00000000E+00
  0.00000000E+00  0.00000000E+00  0.00000000E+00
  0.00000000E+00  0.00000000E+00  0.00000000E+00
  0.00000000E+00  0.00000000E+00  0.00000000E+00
