XCrySDen XSF file                       
   1.00000000000000     
     8.7557991760000000    0.0014347150000000    0.0000000000000000
    -4.3767975578999998    7.6214061294000004    0.0000000000000000
     0.0000000000000000    0.0000000000000000   37.2496528624999996
   O    Si   C    Fe   H 
    35    17     3     1     9
Selective dynamics
Direct
  0.9464475818826982  0.1386873510241941  0.1587217929602928   T   T   T
  0.8241948861400520  0.4153374514935267  0.2981760597527186   T   T   T
 -0.0738247876291108  0.1933708957841156  0.2803106605973046   T   T   T
  0.8427239917084896  0.3761388810268273  0.1642885794807192   T   T   T
  0.7087033862200020  0.3328020498777324  0.2298417220095713   T   T   T
  0.0619098933267961  0.4065614078757129  0.1131022533852314   T   T   T
  0.6038409379227434  0.4687709712712894  0.1778808741662000   T   T   T
  0.1726037877894721  0.4614170567150638  0.1806881144848759   T   T   T
  0.5097073791534147  0.7097807285981355  0.1721816303834437   T   T   T
  0.1664202340289906  0.5342646521308106  0.2940099060063133   T   T   T
  0.3550600323637598  0.6632378975256469  0.2349175357050023   T   T   T
  0.6264620072848801  0.6209962332881374  0.1151025160872090   T   T   T
  0.8484287827541210  0.8032609204721917  0.1673085076604897   T   T   T
  0.2628583133195719  0.7973370158633377  0.1799867871470232   T   T   T
  0.1454923165249663  0.0768986437870947  0.2765107925930830   T   T   T
  0.2734228186640235  0.8647220704116884  0.2734936450941781   T   T   T
  0.1772383841348456  0.0457468665390145  0.1808474670500562   T   T   T
  0.9171550580037731  0.0101727607479476  0.2241585312965135   T   T   T
  0.2925816067365918  0.9751157175413560  0.1205891353711601   T   T   T
  0.5118571711525961  0.1314339733460622  0.1759745239671559   T   T   T
  0.4852658129946127  0.2149208255841882  0.2846764331600470   T   T   T
  0.2758948351156981  0.0018462943558124  0.3360641400987384   T   T   T
 -0.0159987488361378  0.3132214874121498  0.3466563334869724   T   T   T
  0.8519290592831936  0.2831512378372096  0.0551449455000963   F   F   F
  0.0951007800226762  0.1962056325427852  0.0664311973895266   F   F   F
  0.6435122639508180  0.2871351333529475  0.0062649441824689   F   F   F
  0.5341793733256353  0.6405944727190089  0.0487701749518550   F   F   F
  0.7536053152078566  0.5232955158714461  0.0605608868175764   F   F   F
  0.1883570345577468  0.5237117784525367  0.0485992416273646   F   F   F
  0.4052454233984548  0.7543852391140078  0.0000624435349366   F   F   F
  0.8627220604521284  0.8598515769208817  0.0708431599011377   F   F   F
  0.1978518149578221  0.9666086994911609  0.0524192516963211   F   F   F
  0.4134972603595273  0.8496917911639912  0.0695734043097360   F   F   F
  0.9972936637028056  0.9976098862507214  0.0056476771414893   F   F   F
  0.5247602006511727  0.1915081818089135  0.0742682395245922   F   F   F
  0.6663179524416318  0.3268168237544422  0.1871091387237084   T   T   T
  0.6674532606835152  0.3805045369733093  0.2699937096284351   T   T   T
 -0.0218405460427752  0.3648811652444377  0.3043617261728000   T   T   T
  0.0057648197465321  0.3448979472079947  0.1544627645270384   T   T   T
  0.3244390453001101  0.6585642566467108  0.1918687469450778   T   T   T
  0.6484951380539699  0.6513991448160525  0.1580943282387718   T   T   T
  0.3268114681145802  0.7108018351024467  0.2758748230748022   T   T   T
  0.9730928634828316 -0.0001165788212851  0.1832008885927092   T   T   T
  0.2964898390621291  0.0413923696489480  0.2924897587721080   T   T   T
  0.3125336231382608 -0.0114158807265101  0.1640446771166323   T   T   T
 -0.0593759770427145  0.0220806223033002  0.2679669673601461   T   T   T
  0.6910814158987222  0.3221181295740294  0.0490122440533654   F   F   F
  0.0487595369705716  0.3525542246851003  0.0710278288167245   F   F   F
  0.6955669792440489  0.6628706981160590  0.0740326861616509   F   F   F
  0.3825407958196010  0.6925357489639055  0.0420185394955936   F   F   F
  0.3575500675001422  0.9956737883685420  0.0791641802645771   F   F   F
  0.0343144165852252  0.0047539716394382  0.0487926409061856   F   F   F
  0.5262507305152718  0.7890970109758222  0.3031673827035689   T   T   T
  0.6620078992717271  0.5865007759479165  0.2670348048863586   T   T   T
  0.8428080968973700  0.7872459124119997  0.3284643079587153   T   T   T
  0.7104701511097038  0.7665181278051622  0.2929551880355071   T   T   T
  0.0513217801793980  0.4110855763732482  0.3625990970391985   T   T   T
  0.3140294515689367  0.1036027106806663  0.3513040184287083   T   T   T
  0.8473698743138414  0.8696419729507332  0.3511185074183624   T   T   T
  0.6042220033389689  0.6159337709325292  0.2433882488004025   T   T   T
  0.5241503546277936  0.8336511076143026  0.3306900888508652   T   T   T
 -0.0770016063211478  0.7236554077185128  0.3299161974053932   T   T   T
  0.5597134410968891  0.3179615437868222  0.9966963901662567   F   F   F
  0.3227489896947091  0.7872099345341610  0.9905822695638307   F   F   F
  0.8931745130129656  0.0010892845739505  0.9978161294603112   F   F   F
 
  0.00000000E+00  0.00000000E+00  0.00000000E+00
  0.00000000E+00  0.00000000E+00  0.00000000E+00
  0.00000000E+00  0.00000000E+00  0.00000000E+00
  0.00000000E+00  0.00000000E+00  0.00000000E+00
  0.00000000E+00  0.00000000E+00  0.00000000E+00
  0.00000000E+00  0.00000000E+00  0.00000000E+00
  0.00000000E+00  0.00000000E+00  0.00000000E+00
  0.00000000E+00  0.00000000E+00  0.00000000E+00
  0.00000000E+00  0.00000000E+00  0.00000000E+00
  0.00000000E+00  0.00000000E+00  0.00000000E+00
  0.00000000E+00  0.00000000E+00  0.00000000E+00
  0.00000000E+00  0.00000000E+00  0.00000000E+00
  0.00000000E+00  0.00000000E+00  0.00000000E+00
  0.00000000E+00  0.00000000E+00  0.00000000E+00
  0.00000000E+00  0.00000000E+00  0.00000000E+00
  0.00000000E+00  0.00000000E+00  0.00000000E+00
  0.00000000E+00  0.00000000E+00  0.00000000E+00
  0.00000000E+00  0.00000000E+00  0.00000000E+00
  0.00000000E+00  0.00000000E+00  0.00000000E+00
  0.00000000E+00  0.00000000E+00  0.00000000E+00
  0.00000000E+00  0.00000000E+00  0.00000000E+00
  0.00000000E+00  0.00000000E+00  0.00000000E+00
  0.00000000E+00  0.00000000E+00  0.00000000E+00
  0.00000000E+00  0.00000000E+00  0.00000000E+00
  0.00000000E+00  0.00000000E+00  0.00000000E+00
  0.00000000E+00  0.00000000E+00  0.00000000E+00
  0.00000000E+00  0.00000000E+00  0.00000000E+00
  0.00000000E+00  0.00000000E+00  0.00000000E+00
  0.00000000E+00  0.00000000E+00  0.00000000E+00
  0.00000000E+00  0.00000000E+00  0.00000000E+00
  0.00000000E+00  0.00000000E+00  0.00000000E+00
  0.00000000E+00  0.00000000E+00  0.00000000E+00
  0.00000000E+00  0.00000000E+00  0.00000000E+00
  0.00000000E+00  0.00000000E+00  0.00000000E+00
  0.00000000E+00  0.00000000E+00  0.00000000E+00
  0.00000000E+00  0.00000000E+00  0.00000000E+00
  0.00000000E+00  0.00000000E+00  0.00000000E+00
  0.00000000E+00  0.00000000E+00  0.00000000E+00
  0.00000000E+00  0.00000000E+00  0.00000000E+00
  0.00000000E+00  0.00000000E+00  0.00000000E+00
  0.00000000E+00  0.00000000E+00  0.00000000E+00
  0.00000000E+00  0.00000000E+00  0.00000000E+00
  0.00000000E+00  0.00000000E+00  0.00000000E+00
  0.00000000E+00  0.00000000E+00  0.00000000E+00
  0.00000000E+00  0.00000000E+00  0.00000000E+00
  0.00000000E+00  0.00000000E+00  0.00000000E+00
  0.00000000E+00  0.00000000E+00  0.00000000E+00
  0.00000000E+00  0.00000000E+00  0.00000000E+00
  0.00000000E+00  0.00000000E+00  0.00000000E+00
  0.00000000E+00  0.00000000E+00  0.00000000E+00
  0.00000000E+00  0.00000000E+00  0.00000000E+00
  0.00000000E+00  0.00000000E+00  0.00000000E+00
  0.00000000E+00  0.00000000E+00  0.00000000E+00
  0.00000000E+00  0.00000000E+00  0.00000000E+00
  0.00000000E+00  0.00000000E+00  0.00000000E+00
  0.00000000E+00  0.00000000E+00  0.00000000E+00
  0.00000000E+00  0.00000000E+00  0.00000000E+00
  0.00000000E+00  0.00000000E+00  0.00000000E+00
  0.00000000E+00  0.00000000E+00  0.00000000E+00
  0.00000000E+00  0.00000000E+00  0.00000000E+00
  0.00000000E+00  0.00000000E+00  0.00000000E+00
  0.00000000E+00  0.00000000E+00  0.00000000E+00
  0.00000000E+00  0.00000000E+00  0.00000000E+00
  0.00000000E+00  0.00000000E+00  0.00000000E+00
  0.00000000E+00  0.00000000E+00  0.00000000E+00
