XCrySDen XSF file                       
   1.00000000000000     
     8.7557991760000000    0.0014347150000000    0.0000000000000000
    -4.3767975578999998    7.6214061294000004    0.0000000000000000
     0.0000000000000000    0.0000000000000000   37.2496528624999996
   O    Si   C    Fe   H 
    35    17     2     1     7
Selective dynamics
Direct
  0.9231233287600623  0.1547170781750377  0.1668730076536008   T   T   T
  0.8636651958076299  0.2758974073044701  0.2785876725547586   T   T   T
  0.0365971155417933  0.1225578988745958  0.2975111124356458   T   T   T
  0.8298787071811503  0.3971319410602038  0.1592139146873032   T   T   T
  0.7130290804797884  0.3490406149996006  0.2260320004939217   T   T   T
  0.0596311376127210  0.3986742147157843  0.1137243859531929   T   T   T
  0.5911802953731879  0.4855217740706776  0.1791365653290729   T   T   T
  0.1540681788214964  0.4811761781773644  0.1819704883641032   T   T   T
  0.4889249193730296  0.7187928978494408  0.1672244769698987   T   T   T
  0.2161942197007282  0.4720185556175805  0.2887682345645279   T   T   T
  0.3693903549607741  0.6820227802718545  0.2333593329407004   T   T   T
  0.6288918753742825  0.6251308653941143  0.1151639861635287   T   T   T
  0.8315926190779291  0.8200983500805995  0.1687766231927295   T   T   T
  0.2570550894289599  0.8189252753317697  0.1833867658529805   T   T   T
  0.1772694432760200 -0.0316774788954155  0.2631825952402411   T   T   T
  0.3268093068665696  0.8116937973198748  0.2959611647777330   T   T   T
  0.1665547413486028  0.0635365062103633  0.1762596953954953   T   T   T
  0.9353153410898339  0.0077096881575344  0.2289610082184796   T   T   T
  0.2886731383384736  0.9708131908525337  0.1202512203505139   T   T   T
  0.5026609713570437  0.1500020679618691  0.1739625129289940   T   T   T
  0.5187728756627004  0.1559251429793467  0.2804847657578076   T   T   T
  0.2769841819412656  0.0327128720914584  0.3333922281077416   T   T   T
  0.0020342443446927  0.3259243587534482  0.3449871773862898   T   T   T
  0.8519026548236255  0.2830175594713253  0.0551449434329641   F   F   F
  0.0951290703909677  0.1962062500681228  0.0664311962619948   F   F   F
  0.6435061004821563  0.2870409626520285  0.0062649442898532   F   F   F
  0.5342505975073450  0.6405541733069029  0.0487701726162655   F   F   F
  0.7536336798323902  0.5232028949451859  0.0605608865222749   F   F   F
  0.1884386539624359  0.5237256191923763  0.0485992448488659   F   F   F
  0.4053503219012455  0.7543798795387815  0.0000624435349366   F   F   F
  0.8628040147043095  0.8597701015906765  0.0708431568407093   F   F   F
  0.1980164363965571  0.9666622901026898  0.0524192536023804   F   F   F
  0.4136195077532392  0.8496939362550080  0.0695734000412358   F   F   F
  0.9973891234368253  0.9975160622311918  0.0056476767924920   F   F   F
  0.5247471974274660  0.1914274233066635  0.0742682357393178   F   F   F
  0.6584675835249525  0.3448440941179309  0.1844709511290203   T   T   T
  0.7086778149688994  0.3204386487444324  0.2689369086383004   T   T   T
  0.0314542897719678  0.3044617505991625  0.3021775168674670   T   T   T
 -0.0076098696152215  0.3573829036456149  0.1552003518489651   T   T   T
  0.3170184848320490  0.6748003310340720  0.1913584050733906   T   T   T
  0.6366251093502754  0.6644197416233153  0.1577446727240643   T   T   T
  0.3670085842011507  0.6688274474778078  0.2766910516272100   T   T   T
  0.9650100602507019  0.0119205203322486  0.1855791876140189   T   T   T
  0.3266459553058621 -0.0033651798716433  0.2930765093269312   T   T   T
  0.3041358601164807  0.0014814496259632  0.1633733057698676   T   T   T
  0.9844269063702176 -0.0413379498185009  0.2682966472403808   T   T   T
  0.6910775286213138  0.3220183334983560  0.0490122419862331   F   F   F
  0.0488218800347937  0.3525782393554096  0.0710278297026363   F   F   F
  0.6956272616535770  0.6628020981124365  0.0740326899200809   F   F   F
  0.3826362099072469  0.6925289029972745  0.0420185392271293   F   F   F
  0.3577053617196455  0.9957002245921984  0.0791641739826403   F   F   F
  0.0343120767440013  0.0047479128305739  0.0487926426243206   F   F   F
  0.5851500683358665  0.7251481666912746  0.2949120150891424   T   T   T
  0.7699294525926168  0.5287379019129947  0.2921782682517056   T   T   T
  0.7693441449277458  0.7154498505476165  0.3016959837946881   T   T   T
  0.0804911437584574  0.4376129292086176  0.3560565959957334   T   T   T
  0.2092580136398635  0.0930008482233042  0.3334584997644505   T   T   T
  0.6285512603671772  0.8128672789518119  0.3199036872783950   T   T   T
  0.8654618944053948  0.5675283738767424  0.3158767454614934   T   T   T
  0.5597210424564452  0.3178860854139103  0.9966964024348286   F   F   F
  0.3228679134789729  0.7872232072001992  0.9905822783424298   F   F   F
  0.8930907648007320  0.0009213088981426  0.9978161175675808   F   F   F
 
  0.00000000E+00  0.00000000E+00  0.00000000E+00
  0.00000000E+00  0.00000000E+00  0.00000000E+00
  0.00000000E+00  0.00000000E+00  0.00000000E+00
  0.00000000E+00  0.00000000E+00  0.00000000E+00
  0.00000000E+00  0.00000000E+00  0.00000000E+00
  0.00000000E+00  0.00000000E+00  0.00000000E+00
  0.00000000E+00  0.00000000E+00  0.00000000E+00
  0.00000000E+00  0.00000000E+00  0.00000000E+00
  0.00000000E+00  0.00000000E+00  0.00000000E+00
  0.00000000E+00  0.00000000E+00  0.00000000E+00
  0.00000000E+00  0.00000000E+00  0.00000000E+00
  0.00000000E+00  0.00000000E+00  0.00000000E+00
  0.00000000E+00  0.00000000E+00  0.00000000E+00
  0.00000000E+00  0.00000000E+00  0.00000000E+00
  0.00000000E+00  0.00000000E+00  0.00000000E+00
  0.00000000E+00  0.00000000E+00  0.00000000E+00
  0.00000000E+00  0.00000000E+00  0.00000000E+00
  0.00000000E+00  0.00000000E+00  0.00000000E+00
  0.00000000E+00  0.00000000E+00  0.00000000E+00
  0.00000000E+00  0.00000000E+00  0.00000000E+00
  0.00000000E+00  0.00000000E+00  0.00000000E+00
  0.00000000E+00  0.00000000E+00  0.00000000E+00
  0.00000000E+00  0.00000000E+00  0.00000000E+00
  0.00000000E+00  0.00000000E+00  0.00000000E+00
  0.00000000E+00  0.00000000E+00  0.00000000E+00
  0.00000000E+00  0.00000000E+00  0.00000000E+00
  0.00000000E+00  0.00000000E+00  0.00000000E+00
  0.00000000E+00  0.00000000E+00  0.00000000E+00
  0.00000000E+00  0.00000000E+00  0.00000000E+00
  0.00000000E+00  0.00000000E+00  0.00000000E+00
  0.00000000E+00  0.00000000E+00  0.00000000E+00
  0.00000000E+00  0.00000000E+00  0.00000000E+00
  0.00000000E+00  0.00000000E+00  0.00000000E+00
  0.00000000E+00  0.00000000E+00  0.00000000E+00
  0.00000000E+00  0.00000000E+00  0.00000000E+00
  0.00000000E+00  0.00000000E+00  0.00000000E+00
  0.00000000E+00  0.00000000E+00  0.00000000E+00
  0.00000000E+00  0.00000000E+00  0.00000000E+00
  0.00000000E+00  0.00000000E+00  0.00000000E+00
  0.00000000E+00  0.00000000E+00  0.00000000E+00
  0.00000000E+00  0.00000000E+00  0.00000000E+00
  0.00000000E+00  0.00000000E+00  0.00000000E+00
  0.00000000E+00  0.00000000E+00  0.00000000E+00
  0.00000000E+00  0.00000000E+00  0.00000000E+00
  0.00000000E+00  0.00000000E+00  0.00000000E+00
  0.00000000E+00  0.00000000E+00  0.00000000E+00
  0.00000000E+00  0.00000000E+00  0.00000000E+00
  0.00000000E+00  0.00000000E+00  0.00000000E+00
  0.00000000E+00  0.00000000E+00  0.00000000E+00
  0.00000000E+00  0.00000000E+00  0.00000000E+00
  0.00000000E+00  0.00000000E+00  0.00000000E+00
  0.00000000E+00  0.00000000E+00  0.00000000E+00
  0.00000000E+00  0.00000000E+00  0.00000000E+00
  0.00000000E+00  0.00000000E+00  0.00000000E+00
  0.00000000E+00  0.00000000E+00  0.00000000E+00
  0.00000000E+00  0.00000000E+00  0.00000000E+00
  0.00000000E+00  0.00000000E+00  0.00000000E+00
  0.00000000E+00  0.00000000E+00  0.00000000E+00
  0.00000000E+00  0.00000000E+00  0.00000000E+00
  0.00000000E+00  0.00000000E+00  0.00000000E+00
  0.00000000E+00  0.00000000E+00  0.00000000E+00
  0.00000000E+00  0.00000000E+00  0.00000000E+00
