O    Si   C    Fe   H                   
   1.00000000000000     
     8.7557991760000000    0.0014347150000000    0.0000000000000000
    -4.3767975578999998    7.6214061294000004    0.0000000000000000
     0.0000000000000000    0.0000000000000000   37.2496528624999996
   O    Si   C    Fe   H 
    35    17     3     1    10
Selective dynamics
Direct
  0.9286252792039532  0.1429217361633437  0.1647549235701071   T   T   T
  0.8094404817477554  0.3938921813851982  0.2984367879543447   T   T   T
  0.9199456563379153  0.1804275316470499  0.2813023376007723   T   T   T
  0.8316830211636331  0.3840929577459700  0.1612656719715317   T   T   T
  0.7276454210551644  0.3702443167845739  0.2281410706853044   T   T   T
  0.0571630175098955  0.3973703421431780  0.1135023919002095   T   T   T
  0.5908337130749933  0.4752950685322826  0.1777088962801920   T   T   T
  0.1608704254362215  0.4696591363215759  0.1804418023206014   T   T   T
  0.4981917173888946  0.7168389459771780  0.1691034124723283   T   T   T
  0.1547116932527678  0.5318223496455967  0.2914948423985669   T   T   T
  0.3532537168243158  0.6607022531819972  0.2334652523125117   T   T   T
  0.6259900163780351  0.6228977274421090  0.1148802105023596   T   T   T
  0.8392422292964238  0.8093149972982817  0.1677390690837778   T   T   T
  0.2575173981585788  0.8073597406504776  0.1816499818128939   T   T   T
  0.1354212727128520  0.0631875696457727  0.2847577241385713   T   T   T
  0.2781461242167129  0.8688624829845433  0.2713581935733809   T   T   T
  0.1709637044238289  0.0548835341978804  0.1787496159434490   T   T   T
  0.9245451910918312  0.9915999763650322  0.2279677730734256   T   T   T
  0.2980359025702453  0.9788637588868569  0.1209613737022338   T   T   T
  0.5060508366044305  0.1410848325104264  0.1785408586650181   T   T   T
  0.4743418975069450  0.2257706762704753  0.2758963104188421   T   T   T
  0.3415806920595204  0.0214671197753942  0.3340024313271125   T   T   T
 -0.0098310209406795  0.3164600356844192  0.3462949296089335   T   T   T
  0.8519026548236255  0.2830175594713253  0.0551449434329604   F   F   F
  0.0951290703909677  0.1962062500681228  0.0664311962619902   F   F   F
  0.6435061004821546  0.2870409626520278  0.0062649442898528   F   F   F
  0.5342505975073450  0.6405541733069029  0.0487701726162621   F   F   F
  0.7536336798323418  0.5232028949451506  0.0605608865222713   F   F   F
  0.1884386539624354  0.5237256191923755  0.0485992448488626   F   F   F
  0.4053503219012431  0.7543798795387776  0.0000624435349366   F   F   F
  0.8628040147042531  0.8597701015906749  0.0708431568407043   F   F   F
  0.1980164363965563  0.9666622901026880  0.0524192536023763   F   F   F
  0.4136195077532099  0.8496939362549496  0.0695734000412309   F   F   F
  0.9973891234368233  0.9975160622311918  0.0056476767924916   F   F   F
  0.5247471974274656  0.1914274233066634  0.0742682357393128   F   F   F
  0.6625159041840758  0.3405899495472428  0.1861860158352975   T   T   T
  0.6709090713262111  0.3883292616185948  0.2688133343050594   T   T   T
  0.9736363860415841  0.3567992422534904  0.3037888898953445   T   T   T
 -0.0056620353194823  0.3466509274722327  0.1549739140831220   T   T   T
  0.3177962255699583  0.6645574859369358  0.1908883844253588   T   T   T
  0.6405688786158157  0.6585681345551319  0.1576577379468200   T   T   T
  0.3193360967476640  0.7062837172566395  0.2738226400284385   T   T   T
  0.9665001901223708  0.0012093706965845  0.1854883823952570   T   T   T
  0.3076032249492606  0.0459873307736710  0.2914028761565490   T   T   T
  0.3098844595905256 -0.0028849085487739  0.1644908819027380   T   T   T
  0.9328723167412909  1.0027742595928459  0.2720783271308859   T   T   T
  0.6910775286213131  0.3220183334983562  0.0490122419862297   F   F   F
  0.0488218800347937  0.3525782393554096  0.0710278297026313   F   F   F
  0.6956272616535768  0.6628020981124365  0.0740326899200759   F   F   F
  0.3826362099072189  0.6925289029972322  0.0420185392271264   F   F   F
  0.3577053617196219  0.9957002245921486  0.0791641739826352   F   F   F
  0.0343120767440012  0.0047479128305738  0.0487926426243172   F   F   F
  0.5230262666214156  0.7838597273238767  0.2998171247696825   T   T   T
  0.6770286552099255  0.6012598587584455  0.2777579036830691   T   T   T
  0.8830308354549545  0.8177653853137623  0.3447581121640702   T   T   T
  0.7042217279794067  0.7573259624107922  0.3030421402377225   T   T   T
  0.0544660972580865  0.4180384001219652  0.3615189528031602   T   T   T
  0.3667772982432509  0.1183501821326470  0.3498686443618945   T   T   T
  0.5641982024261194  0.8939682721238017  0.3192164533942988   T   T   T
  1.0016977649409706  0.8227454570371076  0.3341846141541501   T   T   T
  0.9110531711666914  0.9513236691084151  0.3514442331295642   T   T   T
  0.8444677759892035  0.7390908826352585  0.3694468733798499   T   T   T
  0.6658748603636657  0.6555223570419926  0.3367483709473514   T   T   T
  0.5597210424564105  0.3178860854138906  0.9966964024347457   F   F   F
  0.3228679134789727  0.7872232072001989  0.9905822783423480   F   F   F
  0.8930907648007315  0.0009213088981426  0.9978161175674983   F   F   F
 
             NaN             NaN             NaN
             NaN             NaN             NaN
             NaN             NaN             NaN
             NaN             NaN             NaN
             NaN             NaN             NaN
             NaN             NaN             NaN
             NaN             NaN             NaN
             NaN             NaN             NaN
             NaN             NaN             NaN
             NaN             NaN             NaN
             NaN             NaN             NaN
             NaN             NaN             NaN
             NaN             NaN             NaN
             NaN             NaN             NaN
             NaN             NaN             NaN
             NaN             NaN             NaN
             NaN             NaN             NaN
             NaN             NaN             NaN
             NaN             NaN             NaN
             NaN             NaN             NaN
             NaN             NaN             NaN
             NaN             NaN             NaN
             NaN             NaN             NaN
             NaN             NaN             NaN
             NaN             NaN             NaN
             NaN             NaN             NaN
             NaN             NaN             NaN
             NaN             NaN             NaN
             NaN             NaN             NaN
             NaN             NaN             NaN
             NaN             NaN             NaN
             NaN             NaN             NaN
             NaN             NaN             NaN
             NaN             NaN             NaN
             NaN             NaN             NaN
             NaN             NaN             NaN
             NaN             NaN             NaN
             NaN             NaN             NaN
             NaN             NaN             NaN
             NaN             NaN             NaN
             NaN             NaN             NaN
             NaN             NaN             NaN
             NaN             NaN             NaN
             NaN             NaN             NaN
             NaN             NaN             NaN
             NaN             NaN             NaN
             NaN             NaN             NaN
             NaN             NaN             NaN
             NaN             NaN             NaN
             NaN             NaN             NaN
             NaN             NaN             NaN
             NaN             NaN             NaN
             NaN             NaN             NaN
             NaN             NaN             NaN
             NaN             NaN             NaN
             NaN             NaN             NaN
             NaN             NaN             NaN
             NaN             NaN             NaN
             NaN             NaN             NaN
             NaN             NaN             NaN
             NaN             NaN             NaN
             NaN             NaN             NaN
             NaN             NaN             NaN
             NaN             NaN             NaN
             NaN             NaN             NaN
             NaN             NaN             NaN
