XCrySDen XSF file                       
   1.00000000000000     
     8.7557991760000000    0.0014347150000000    0.0000000000000000
    -4.3767975578999998    7.6214061294000004    0.0000000000000000
     0.0000000000000000    0.0000000000000000   37.2496528624999996
   O    Si   C    Fe   H 
    35    17     3     1     9
Selective dynamics
Direct
  0.9279571156209372  0.1613469240182420  0.1675501361132774   T   T   T
  0.8622641614005117  0.3001059103678541  0.2838789451071732   T   T   T
  0.0455746855644138  0.1449761057191354  0.2945632733871910   T   T   T
  0.8359445457498937  0.4041963865470122  0.1583532594862253   T   T   T
  0.7277309337860466  0.3518869378441106  0.2252508798888094   T   T   T
  0.0630216020045076  0.4001999633710714  0.1135610471325224   T   T   T
  0.6015443991520960  0.4950660598185973  0.1801598946688326   T   T   T
  0.1609432720023807  0.4891677688582018  0.1812723660131270   T   T   T
  0.4970832212922943  0.7265420886671475  0.1676754819916683   T   T   T
  0.2171948222593232  0.4971312715268664  0.2909424379553995   T   T   T
  0.3703006461569003  0.6888341811716937  0.2333496339667628   T   T   T
  0.6279952901187870  0.6241574363641815  0.1151905689892858   T   T   T
  0.8395124936505022  0.8277403974783325  0.1668183332663188   T   T   T
  0.2641821760545330  0.8273393118214263  0.1832712152271676   T   T   T
  0.1776771090700232 -0.0246881264256471  0.2642600373164476   T   T   T
  0.3543716099495179  0.8422584020018137  0.2953048495100158   T   T   T
  0.1722262346507850  0.0709005227124751  0.1766642576569254   T   T   T
  0.9326285827336139  0.0034745965250235  0.2285534290984871   T   T   T
  0.2895398928433289  0.9739883040547780  0.1202724071548912   T   T   T
  0.5083195860156078  0.1589688868323607  0.1732844545162581   T   T   T
  0.5183226044847501  0.1886289539473288  0.2801975395985455   T   T   T
  0.2862537016010079  0.0466218164841944  0.3340575905319579   T   T   T
  0.0225253358532200  0.3229942786585523  0.3475250746765486   T   T   T
  0.8519554578661044  0.2832849542549241  0.0551449434329641   F   F   F
  0.0950725225086870  0.1962050798287009  0.0664311962619948   F   F   F
  0.6435183297815001  0.2872292458152756  0.0062649442898532   F   F   F
  0.5341081460208130  0.6406347626846198  0.0487701726162655   F   F   F
  0.7535770231739747  0.5233881732602583  0.0605608865222749   F   F   F
  0.1882754435088572  0.5236979647364990  0.0485992448488659   F   F   F
  0.4051404826116638  0.7543905470006891  0.0000624435349366   F   F   F
  0.8626401675154938  0.8599330944889587  0.0708431568407093   F   F   F
  0.1976871132683300  0.9665550228213888  0.0524192536023804   F   F   F
  0.4133750126877800  0.8496896523710760  0.0695734000412358   F   F   F
  0.9971982069156482  0.9977037275893323  0.0056476767924920   F   F   F
  0.5247732274247525  0.1915889371577109  0.0742682357393178   F   F   F
  0.6666419753755961  0.3518707905016363  0.1841983074332461   T   T   T
  0.7141168103153223  0.3438328852635867  0.2686852204502709   T   T   T
  0.0370195841569643  0.3213866145824777  0.3034510896484006   T   T   T
 -0.0023108324235575  0.3629325201527615  0.1551150636989141   T   T   T
  0.3231066402816385  0.6825204458253682  0.1911199376226735   T   T   T
  0.6427584877201357  0.6701275230792937  0.1576028922390550   T   T   T
  0.3755345156642727  0.6860850406010808  0.2767589774771259   T   T   T
  0.9691661859589585  0.0163114868535676  0.1854034155255725   T   T   T
  0.3351062099460071  0.0165497232933712  0.2929696801803437   T   T   T
  0.3093500569345518  0.0090944965333292  0.1632669314521504   T   T   T
  0.9852190005342004  0.9678619114924920  0.2688655299601192   T   T   T
  0.6910853484370776  0.3222179014986608  0.0490122419862331   F   F   F
  0.0486972674602413  0.3525302401791066  0.0710278297026363   F   F   F
  0.6955066808523256  0.6629392346173475  0.0740326899200809   F   F   F
  0.3824454656919940  0.6925425846803961  0.0420185392271293   F   F   F
  0.3573949185769436  0.9956474056509563  0.0791641739826403   F   F   F
  0.0343167398972781  0.0047599832160330  0.0487926426243206   F   F   F
  0.5986845416973401  0.7390448976840490  0.2922525126689738   T   T   T
  0.7814396090410627  0.5643612945996968  0.2876308498726940   T   T   T
  0.8578067805771692  0.8106833725471458  0.3647581216344186   T   T   T
  0.7762550185333753  0.7348488949764572  0.3038492551613129   T   T   T
  0.0618397989836922  0.4364556123632374  0.3584006417992785   T   T   T
  0.2420812302281683  0.1282400129744911  0.3353738153840411   T   T   T
  0.8816792166865192  0.9141848580180164  0.3447376086863368   T   T   T
  0.7956396452607711  0.6733756356860926  0.3542678225035537   T   T   T
  0.7697255122798931  0.8148183033103776  0.3850210318819998   T   T   T
 -0.0141202434315363  0.8416334562629666  0.3757552782561602   T   T   T
  0.5597057875399614  0.3180369790767017  0.9966964024348286   F   F   F
  0.3226300845592007  0.7871966164661757  0.9905822783424298   F   F   F
  0.8932582635212398  0.0012573045980986  0.9978161175675808   F   F   F
 
  0.00000000E+00  0.00000000E+00  0.00000000E+00
  0.00000000E+00  0.00000000E+00  0.00000000E+00
  0.00000000E+00  0.00000000E+00  0.00000000E+00
  0.00000000E+00  0.00000000E+00  0.00000000E+00
  0.00000000E+00  0.00000000E+00  0.00000000E+00
  0.00000000E+00  0.00000000E+00  0.00000000E+00
  0.00000000E+00  0.00000000E+00  0.00000000E+00
  0.00000000E+00  0.00000000E+00  0.00000000E+00
  0.00000000E+00  0.00000000E+00  0.00000000E+00
  0.00000000E+00  0.00000000E+00  0.00000000E+00
  0.00000000E+00  0.00000000E+00  0.00000000E+00
  0.00000000E+00  0.00000000E+00  0.00000000E+00
  0.00000000E+00  0.00000000E+00  0.00000000E+00
  0.00000000E+00  0.00000000E+00  0.00000000E+00
  0.00000000E+00  0.00000000E+00  0.00000000E+00
  0.00000000E+00  0.00000000E+00  0.00000000E+00
  0.00000000E+00  0.00000000E+00  0.00000000E+00
  0.00000000E+00  0.00000000E+00  0.00000000E+00
  0.00000000E+00  0.00000000E+00  0.00000000E+00
  0.00000000E+00  0.00000000E+00  0.00000000E+00
  0.00000000E+00  0.00000000E+00  0.00000000E+00
  0.00000000E+00  0.00000000E+00  0.00000000E+00
  0.00000000E+00  0.00000000E+00  0.00000000E+00
  0.00000000E+00  0.00000000E+00  0.00000000E+00
  0.00000000E+00  0.00000000E+00  0.00000000E+00
  0.00000000E+00  0.00000000E+00  0.00000000E+00
  0.00000000E+00  0.00000000E+00  0.00000000E+00
  0.00000000E+00  0.00000000E+00  0.00000000E+00
  0.00000000E+00  0.00000000E+00  0.00000000E+00
  0.00000000E+00  0.00000000E+00  0.00000000E+00
  0.00000000E+00  0.00000000E+00  0.00000000E+00
  0.00000000E+00  0.00000000E+00  0.00000000E+00
  0.00000000E+00  0.00000000E+00  0.00000000E+00
  0.00000000E+00  0.00000000E+00  0.00000000E+00
  0.00000000E+00  0.00000000E+00  0.00000000E+00
  0.00000000E+00  0.00000000E+00  0.00000000E+00
  0.00000000E+00  0.00000000E+00  0.00000000E+00
  0.00000000E+00  0.00000000E+00  0.00000000E+00
  0.00000000E+00  0.00000000E+00  0.00000000E+00
  0.00000000E+00  0.00000000E+00  0.00000000E+00
  0.00000000E+00  0.00000000E+00  0.00000000E+00
  0.00000000E+00  0.00000000E+00  0.00000000E+00
  0.00000000E+00  0.00000000E+00  0.00000000E+00
  0.00000000E+00  0.00000000E+00  0.00000000E+00
  0.00000000E+00  0.00000000E+00  0.00000000E+00
  0.00000000E+00  0.00000000E+00  0.00000000E+00
  0.00000000E+00  0.00000000E+00  0.00000000E+00
  0.00000000E+00  0.00000000E+00  0.00000000E+00
  0.00000000E+00  0.00000000E+00  0.00000000E+00
  0.00000000E+00  0.00000000E+00  0.00000000E+00
  0.00000000E+00  0.00000000E+00  0.00000000E+00
  0.00000000E+00  0.00000000E+00  0.00000000E+00
  0.00000000E+00  0.00000000E+00  0.00000000E+00
  0.00000000E+00  0.00000000E+00  0.00000000E+00
  0.00000000E+00  0.00000000E+00  0.00000000E+00
  0.00000000E+00  0.00000000E+00  0.00000000E+00
  0.00000000E+00  0.00000000E+00  0.00000000E+00
  0.00000000E+00  0.00000000E+00  0.00000000E+00
  0.00000000E+00  0.00000000E+00  0.00000000E+00
  0.00000000E+00  0.00000000E+00  0.00000000E+00
  0.00000000E+00  0.00000000E+00  0.00000000E+00
  0.00000000E+00  0.00000000E+00  0.00000000E+00
  0.00000000E+00  0.00000000E+00  0.00000000E+00
  0.00000000E+00  0.00000000E+00  0.00000000E+00
  0.00000000E+00  0.00000000E+00  0.00000000E+00
