XCrySDen XSF file                       
   1.00000000000000     
     8.7557991760000000    0.0014347150000000    0.0000000000000000
    -4.3767975578999998    7.6214061294000004    0.0000000000000000
     0.0000000000000000    0.0000000000000000   37.2496528624999996
   O    Si   C    Fe   H 
    35    17     3     1     7
Selective dynamics
Direct
  0.9396426968435363  0.1444995263094118  0.1582420863067842   T   T   T
  0.7450203573937659  0.2353892114207272  0.2914576101799559   T   T   T
  0.0234141057810356  0.1810777016559680  0.2898518326421148   T   T   T
  0.8390382360586377  0.3861515000963926  0.1601322524661095   T   T   T
  0.7094977024963250  0.3219106031390521  0.2257344279138560   T   T   T
  0.0692072858958860  0.4118167031768440  0.1128059555268528   T   T   T
  0.6001078129639998  0.4727799044677239  0.1779378622123085   T   T   T
  0.1616739557894950  0.4662029307085701  0.1817317679221864   T   T   T
  0.4998203750400272  0.7085238622903893  0.1731760975550224   T   T   T
  0.0741814388745815  0.5020405447607171  0.2836430226142970   T   T   T
  0.3442068656743149  0.6585426044337862  0.2372375398916319   T   T   T
  0.6302766089395934  0.6296380304002528  0.1156692728549196   T   T   T
  0.8398013639705190  0.8109593711433477  0.1703505321773122   T   T   T
  0.2628616496997069  0.8059673438188131  0.1831727389017507   T   T   T
  0.0760405579606480  0.9134837585202306  0.2751613002296662   T   T   T
  0.3163904045265736  0.8265842279288749  0.2954154095712365   T   T   T
  0.1751228398375053  0.0517541771385078  0.1781643607323455   T   T   T
  0.9454096714240481  0.0475656796755701  0.2245065098304461   T   T   T
  0.2845967230953031  0.9627252229817844  0.1200401670655114   T   T   T
  0.5102558622764040  0.1362125487410106  0.1715656892173960   T   T   T
  0.4214537749083684  0.1300047203201396  0.2643409561451319   T   T   T
  0.2891326330504155  0.0651403707467641  0.3323955019864149   T   T   T
 -0.0271833601757246  0.3223693692545102  0.3465359763133282   T   T   T
  0.8519026110539869  0.2830175096409135  0.0551449455000963   F   F   F
  0.0951290435065033  0.1962061850667070  0.0664311973895266   F   F   F
  0.6435061787157181  0.2870410102154253  0.0062649441824689   F   F   F
  0.5342506074501685  0.6405541726310915  0.0487701749518550   F   F   F
  0.7536336604275746  0.5232028810499827  0.0605608868175764   F   F   F
  0.1884386361857082  0.5237255796688274  0.0485992416273646   F   F   F
  0.4053503677883512  0.7543799104697726  0.0000624435349366   F   F   F
  0.8628039680073414  0.8597700565214126  0.0708431599011377   F   F   F
  0.1980165186977203  0.9666623684948590  0.0524192516963211   F   F   F
  0.4136195033118710  0.8496938729704837  0.0695734043097360   F   F   F
  0.9973890368734430  0.9975159917261394  0.0056476771414893   F   F   F
  0.5247471517372873  0.1914274175841584  0.0742682395245922   F   F   F
  0.6632076082437089  0.3293023503841532  0.1837735460673381   T   T   T
  0.6265336614738359  0.2898705622830819  0.2659424246873510   T   T   T
  0.9505774226646991  0.3109621078476260  0.3026491932222962   T   T   T
  0.0028002335724357  0.3516581712056882  0.1536867344234888   T   T   T
  0.3175039712033493  0.6598761238453500  0.1938260285033867   T   T   T
  0.6437387231594499  0.6567556898525383  0.1589591865455337   T   T   T
  0.2867602118234434  0.6411793572590216  0.2793539304053527   T   T   T
  0.9739980675851325  0.0115214657282925  0.1829294148780914   T   T   T
  0.2762606580102424 -0.0132447784974771  0.2918333772527817   T   T   T
  0.3085716822308073  0.9886308971805925  0.1632049682968743   T   T   T
  0.9285806775148958 -0.0074625712676951  0.2670143653238075   T   T   T
  0.6910774899720735  0.3220183426711571  0.0490122440533654   F   F   F
  0.0488218116457233  0.3525782048129003  0.0710278288167245   F   F   F
  0.6956272550192253  0.6628021150869188  0.0740326861616509   F   F   F
  0.3826361464664956  0.6925288770002425  0.0420185394955936   F   F   F
  0.3577052593291512  0.9957001309194737  0.0791641802645557   F   F   F
  0.0343120899416434  0.0047479597412305  0.0487926409061856   F   F   F
  0.4167525539296118  0.5781199665502735  0.3106458617870130   T   T   T
  0.6378528488129475  0.4868080741836802  0.2829406711477550   T   T   T
  0.5752714354132694  0.5791708936186081  0.2974559470253975   T   T   T
  0.8214212393671750  0.7194313139986458  0.2912633872622759   T   T   T
 -0.0941787745203243  0.3636592023531868  0.3598917901085770   T   T   T
  0.2234294897112199  0.1258568334335861  0.3360893899791781   T   T   T
  0.3241730706900132  0.4459281293264629  0.3208854155461993   T   T   T
  0.4486432892111545  0.6695174881362120  0.3332720747642900   T   T   T
  0.5597210857188841  0.3178860933932910  0.9966963901662567   F   F   F
  0.3228679203900313  0.7872232214258759  0.9905822695638307   F   F   F
  0.8930906914664405  0.0009212644617307  0.9978161294603112   F   F   F
 
  0.00000000E+00  0.00000000E+00  0.00000000E+00
  0.00000000E+00  0.00000000E+00  0.00000000E+00
  0.00000000E+00  0.00000000E+00  0.00000000E+00
  0.00000000E+00  0.00000000E+00  0.00000000E+00
  0.00000000E+00  0.00000000E+00  0.00000000E+00
  0.00000000E+00  0.00000000E+00  0.00000000E+00
  0.00000000E+00  0.00000000E+00  0.00000000E+00
  0.00000000E+00  0.00000000E+00  0.00000000E+00
  0.00000000E+00  0.00000000E+00  0.00000000E+00
  0.00000000E+00  0.00000000E+00  0.00000000E+00
  0.00000000E+00  0.00000000E+00  0.00000000E+00
  0.00000000E+00  0.00000000E+00  0.00000000E+00
  0.00000000E+00  0.00000000E+00  0.00000000E+00
  0.00000000E+00  0.00000000E+00  0.00000000E+00
  0.00000000E+00  0.00000000E+00  0.00000000E+00
  0.00000000E+00  0.00000000E+00  0.00000000E+00
  0.00000000E+00  0.00000000E+00  0.00000000E+00
  0.00000000E+00  0.00000000E+00  0.00000000E+00
  0.00000000E+00  0.00000000E+00  0.00000000E+00
  0.00000000E+00  0.00000000E+00  0.00000000E+00
  0.00000000E+00  0.00000000E+00  0.00000000E+00
  0.00000000E+00  0.00000000E+00  0.00000000E+00
  0.00000000E+00  0.00000000E+00  0.00000000E+00
  0.00000000E+00  0.00000000E+00  0.00000000E+00
  0.00000000E+00  0.00000000E+00  0.00000000E+00
  0.00000000E+00  0.00000000E+00  0.00000000E+00
  0.00000000E+00  0.00000000E+00  0.00000000E+00
  0.00000000E+00  0.00000000E+00  0.00000000E+00
  0.00000000E+00  0.00000000E+00  0.00000000E+00
  0.00000000E+00  0.00000000E+00  0.00000000E+00
  0.00000000E+00  0.00000000E+00  0.00000000E+00
  0.00000000E+00  0.00000000E+00  0.00000000E+00
  0.00000000E+00  0.00000000E+00  0.00000000E+00
  0.00000000E+00  0.00000000E+00  0.00000000E+00
  0.00000000E+00  0.00000000E+00  0.00000000E+00
  0.00000000E+00  0.00000000E+00  0.00000000E+00
  0.00000000E+00  0.00000000E+00  0.00000000E+00
  0.00000000E+00  0.00000000E+00  0.00000000E+00
  0.00000000E+00  0.00000000E+00  0.00000000E+00
  0.00000000E+00  0.00000000E+00  0.00000000E+00
  0.00000000E+00  0.00000000E+00  0.00000000E+00
  0.00000000E+00  0.00000000E+00  0.00000000E+00
  0.00000000E+00  0.00000000E+00  0.00000000E+00
  0.00000000E+00  0.00000000E+00  0.00000000E+00
  0.00000000E+00  0.00000000E+00  0.00000000E+00
  0.00000000E+00  0.00000000E+00  0.00000000E+00
  0.00000000E+00  0.00000000E+00  0.00000000E+00
  0.00000000E+00  0.00000000E+00  0.00000000E+00
  0.00000000E+00  0.00000000E+00  0.00000000E+00
  0.00000000E+00  0.00000000E+00  0.00000000E+00
  0.00000000E+00  0.00000000E+00  0.00000000E+00
  0.00000000E+00  0.00000000E+00  0.00000000E+00
  0.00000000E+00  0.00000000E+00  0.00000000E+00
  0.00000000E+00  0.00000000E+00  0.00000000E+00
  0.00000000E+00  0.00000000E+00  0.00000000E+00
  0.00000000E+00  0.00000000E+00  0.00000000E+00
  0.00000000E+00  0.00000000E+00  0.00000000E+00
  0.00000000E+00  0.00000000E+00  0.00000000E+00
  0.00000000E+00  0.00000000E+00  0.00000000E+00
  0.00000000E+00  0.00000000E+00  0.00000000E+00
  0.00000000E+00  0.00000000E+00  0.00000000E+00
  0.00000000E+00  0.00000000E+00  0.00000000E+00
  0.00000000E+00  0.00000000E+00  0.00000000E+00
